33

C          1.32390       -0.47420        2.17430
N          2.74490       -0.74520        2.03590
C          3.60970       -0.47660        3.17040
C          3.22210       -1.02250        0.75680
O          2.46080       -1.09700       -0.21230
C          4.73690       -1.23510        0.56540
N          5.16080       -2.61900        0.90560
C          4.53070       -3.58260       -0.01450
C          6.63860       -2.70380        0.80660
C          7.20000       -4.07630        1.09980
C          6.98470       -4.69270        2.33970
C          7.43620       -5.99560        2.57020
C          8.11250       -6.69260        1.56940
C          8.36210       -6.07750        0.34490
C          7.91250       -4.77760        0.12210
F          8.16290       -4.20940       -1.06580
H          1.04760       -0.32510        3.22140
H          0.76030       -1.32500        1.77850
H          1.06740        0.41840        1.59580
H          3.02880       -0.38370        4.09180
H          4.15500        0.45460        2.99110
H          4.32240       -1.29680        3.29020
H          5.27410       -0.50830        1.17710
H          4.97840       -0.99440       -0.47900
H          3.44530       -3.45800       -0.06500
H          4.68020       -4.60670        0.34360
H          4.93330       -3.50500       -1.03090
H          7.08890       -2.00960        1.52800
H          6.96880       -2.36790       -0.18840
H          6.43540       -4.16780        3.11920
H          7.24340       -6.47250        3.52890
H          8.44100       -7.71420        1.74280
H          8.89160       -6.60420       -0.44330
