25

C          2.77360        1.61380       -0.23240
C          2.48100        0.14620       -0.03500
O          1.64770       -0.23800        0.78690
C          3.21250       -0.83980       -0.94170
N          4.65570       -0.68900       -0.76480
C          5.41580       -1.62290       -1.61140
C          6.93200       -1.47130       -1.35450
O          7.36160       -0.67680       -0.51500
N          7.78360       -2.29350       -2.08940
C          7.36150       -3.28200       -3.06960
C          9.21610       -2.21590       -1.84640
H          2.20800        2.20090        0.49660
H          2.47410        1.91360       -1.23980
H          3.83730        1.81400       -0.08090
H          2.91710       -0.62490       -1.97430
H          2.88640       -1.85430       -0.68520
H          4.92500       -0.84870        0.21000
H          5.21720       -1.40080       -2.66470
H          5.13160       -2.65410       -1.37490
H          6.28330       -3.29470       -3.22710
H          7.67630       -4.27150       -2.72410
H          7.85050       -3.05960       -4.02280
H          9.47760       -1.44730       -1.11490
H          9.72210       -1.98950       -2.78950
H          9.56010       -3.18570       -1.47320
