%nprocshared=8
%mem=14GB
# b3lyp/6-31g(d,p)

Generated by mdgx

0   1
    C       14.9514746   17.9078567   17.2719335
    C       14.8152431   16.7867714   18.3033931
    O       14.9344610   17.0496244   19.4860537
    N       14.5655017   15.4572555   17.8835463
    C       14.2358299   15.1032396   16.4707481
    C       14.9693733   13.8476632   15.8943142
    O       16.0609403   14.2424887   15.0474623
    C       17.2290704   14.7310329   15.7286076
    C       18.2200894   15.2542138   14.6987683
    C       18.5465472   16.6243446   14.6527580
    C       19.4653436   17.1031972   13.7029959
    C       20.0630234   16.2149053   12.7936424
    C       19.7425310   14.8481015   12.8338209
    C       18.8241330   14.3693429   13.7839185
    C       13.9320161   13.1276710   15.0250144
    C       12.6022178   13.4064747   15.7253614
    C       12.7243878   14.8419484   16.2579921
    C       14.4454269   14.3961223   18.9242594
    C       15.7979215   13.8168834   19.4083133
    O       16.8271918   14.0376554   18.7917297
    N       15.8039489   12.9627921   20.5286456
    C       14.6187406   12.8098379   21.3892905
    C       17.0713132   12.3647106   20.9826313
    H       15.1726022   18.8741450   17.7397313
    H       14.0373426   17.9612663   16.6716551
    H       15.7194752   17.6377833   16.5403720
    H       14.4963075   15.9374073   15.8122993
    H       15.2972228   13.1699408   16.6916639
    H       17.7011822   13.9231074   16.3013456
    H       16.9702591   15.5367554   16.4261383
    H       18.0905316   17.3184590   15.3528769
    H       19.7137050   18.1604258   13.6723045
    H       20.7731716   16.5850786   12.0592713
    H       20.2037842   14.1606443   12.1301134
    H       18.5767277   13.3119446   13.8094784
    H       14.1355164   12.0524733   14.9540112
    H       13.9171251   13.5541669   14.0140813
    H       12.4778790   12.7117235   16.5649837
    H       11.7494850   13.2923966   15.0460131
    H       12.1438243   14.9693935   17.1802379
    H       12.3342800   15.5478412   15.5145402
    H       13.8450737   13.5629603   18.5396032
    H       13.9068260   14.8063696   19.7871291
    H       13.7638158   12.4801051   20.7863764
    H       14.3837945   13.7718425   21.8610657
    H       14.8035217   12.0644788   22.1723007
    H       17.5555579   11.8475774   20.1450064
    H       16.8895835   11.6389826   21.7849757
    H       17.7343791   13.1542974   21.3567250


