! b3lyp 6-31g** TightSCF  NoKeepInts

%scf
  MaxCore 512
end
*xyz  0  1
    C       18.0964780   12.5728078   13.3833765
    H       18.7108379   13.4469337   13.1335591
    H       17.2482508   12.5144180   12.6906341
    H       18.7115253   11.6706380   13.2725131
    N       17.6038890   12.6900595   14.7669942
    C       17.7338177   11.4805897   15.5964739
    H       16.9121354   11.4375130   16.3227029
    H       18.6910077   11.5038895   16.1322339
    H       17.6909879   10.5829808   14.9664953
    C       17.2244721   13.9032131   15.3366401
    O       17.1518616   14.0380082   16.5467272
    C       16.5308829   14.9266111   14.3999123
    H       16.7677151   15.9344891   14.7635497
    H       16.9198633   14.8457840   13.3780449
    N       15.0617232   14.7553508   14.3915967
    C       14.5816278   13.8942221   13.4319804
    C       14.1606196   14.5630399   12.1367610
    H       14.9746436   15.1884179   11.7537007
    H       13.2822048   15.1936064   12.3124808
    H       13.9101567   13.7995459   11.3908445
    O       14.7378948   12.6932715   13.5088764
    C       14.2379126   15.1502023   15.5408285
    H       14.8858137   15.3397460   16.4055138
    H       13.5718430   14.3184679   15.8039712
    C       13.4104074   16.3955826   15.2548066
    C       13.9356335   17.6724653   15.5248965
    H       14.9329194   17.7727469   15.9443051
    C       13.1769096   18.8223540   15.2533988
    H       13.5862497   19.8069191   15.4637647
    C       11.8882021   18.6994604   14.7111199
    H       11.3002620   19.5889727   14.5021966
    C       11.3567161   17.4286240   14.4422131
    H       10.3573200   17.3348317   14.0255040
    C       12.1161693   16.2794881   14.7144718
    H       11.6985462   15.2982487   14.5064116
*
