! b3lyp 6-31g** TightSCF  NoKeepInts

%scf
  MaxCore 512
end
*xyz  0  1
    C       15.5590714   11.1442126   15.7882625
    H       14.8655699   10.6171747   15.1300980
    H       14.9656576   11.7720644   16.4730523
    H       16.0800418   10.4006088   16.4106044
    N       16.4807004   12.0614140   15.0236649
    C       17.2399393   12.8606785   16.0841886
    H       16.5260420   13.4385679   16.6961761
    H       17.9599061   13.5937218   15.6901436
    H       17.8477434   12.2563751   16.7704815
    C       15.8187065   12.7937595   14.0069058
    O       15.0520708   12.2388573   13.2450907
    C       16.6712762   13.9602950   13.4187786
    H       17.3169028   14.3808249   14.1742533
    H       17.3725851   13.5642417   12.6540565
    N       15.8395012   15.1292093   12.9588193
    C       16.8089468   15.9617087   12.3735457
    C       16.5948313   17.4815511   12.5086632
    H       16.6532783   17.8007459   13.5545117
    H       15.6140061   17.7852111   12.0928846
    H       17.3573775   18.0233295   11.9605641
    O       17.4868108   15.5854345   11.4182243
    C       15.0584464   15.6842185   14.1287732
    H       15.3545741   16.6591493   14.4535647
    H       15.4134907   15.0823647   14.9898453
    C       13.5562614   15.4951689   14.3233080
    C       13.0770233   15.4700774   15.6559069
    H       13.6429456   14.8889832   16.3993745
    C       11.9815105   16.1979693   16.1085480
    H       11.6763226   16.1518045   17.1552783
    C       11.3733199   17.1002238   15.2491995
    H       10.5911124   17.7867135   15.6338968
    C       11.8069785   17.1974422   13.9313294
    H       11.3902522   17.9766681   13.2932365
    C       12.8441385   16.3831730   13.4656286
    H       13.2801585   16.6195574   12.4886407
*
