! b3lyp 6-31g** TightSCF  NoKeepInts

%scf
  MaxCore 512
end
*xyz  0  1
    C       17.1254274   13.1257147   16.7995855
    H       16.2918071   12.6717689   17.3503026
    H       17.0393737   14.2183747   16.8449504
    H       18.0666709   12.8198119   17.2741507
    N       17.0941391   12.6866439   15.3936102
    C       18.3924783   12.2737088   14.8318795
    H       18.5551706   11.2063193   15.0276841
    H       19.2035466   12.8549826   15.2887618
    H       18.4023670   12.4494689   13.7486169
    C       15.9054098   12.3371208   14.7559777
    O       15.9182827   11.6287781   13.7642994
    C       14.7339806   13.3232372   14.9717085
    H       13.7986385   12.7504516   14.9272311
    H       14.7840595   13.7808696   15.9668031
    N       14.7314301   14.3638085   13.9163981
    C       13.9828971   14.0679066   12.7993746
    C       14.7524966   14.1263109   11.4948238
    H       15.1553625   15.1333276   11.3415023
    H       14.0847017   13.8723066   10.6634056
    H       15.5781181   13.4057409   11.5228240
    O       12.7690761   14.0740311   12.8269284
    C       15.2649976   15.6592433   14.3726110
    H       16.0304803   15.9795629   13.6548647
    H       15.7658587   15.5464176   15.3420393
    C       14.2002478   16.7472913   14.4889661
    C       13.0390101   16.5351512   15.2564121
    H       12.8786339   15.5831780   15.7536256
    C       12.0667509   17.5419730   15.3656050
    H       11.1657696   17.3668182   15.9474802
    C       12.2546864   18.7716376   14.7166158
    H       11.5005278   19.5493694   14.7984698
    C       13.4125831   18.9943368   13.9561673
    H       13.5557771   19.9463883   13.4521533
    C       14.3824432   17.9850998   13.8432232
    H       15.2742994   18.1663494   13.2504483
*
