! b3lyp 6-31g** TightSCF  NoKeepInts

%scf
  MaxCore 512
end
*xyz  0  1
    C       15.8744448   11.0271411   15.6904152
    H       15.5033066   10.4275074   14.8505360
    H       14.9829962   11.4167545   16.2119893
    H       16.4367038   10.3728708   16.3623958
    N       16.7367866   12.1341753   15.1837148
    C       17.2648007   12.9595324   16.3199774
    H       16.4705839   13.4921373   16.8674994
    H       18.0013459   13.6914181   15.9701572
    H       17.7674369   12.3030031   17.0414943
    C       16.1942768   12.6929940   14.0225928
    O       16.0861532   11.8804557   13.1123109
    C       16.7847577   13.9967164   13.4713164
    H       17.3133747   14.5447318   14.2538112
    H       17.5508074   13.7630980   12.7145669
    N       15.6922505   14.9003792   12.9225038
    C       16.4313511   15.7646565   12.1094345
    C       15.9925990   17.2189989   12.0513190
    H       16.3142140   17.7319202   12.9598716
    H       14.9087373   17.2887741   11.9006801
    H       16.4773233   17.7228221   11.2059766
    O       16.9258320   15.3266567   11.0891438
    C       15.0891085   15.5039096   14.1994741
    H       15.7276444   16.3309476   14.5242808
    H       15.2034550   14.7608178   15.0052983
    C       13.5944818   15.8827249   14.3561772
    C       12.6929929   15.2825020   15.2814948
    H       12.8676405   14.2797241   15.6635041
    C       11.5305815   15.9664291   15.7180065
    H       10.8125158   15.4865202   16.3764314
    C       11.3303845   17.3144596   15.3953905
    H       10.4730867   17.8635989   15.7761854
    C       12.2999529   17.9803597   14.6572169
    H       12.2415634   19.0555449   14.5061099
    C       13.3989301   17.2771922   14.1667931
    H       14.1850793   17.9020259   13.7714301
*
