! b3lyp 6-31g** TightSCF  NoKeepInts

%scf
  MaxCore 512
end
*xyz  0  1
    C       17.8778394   12.3723147   13.5209413
    H       18.9638513   12.2736902   13.3982830
    H       17.4841858   13.0044008   12.7160024
    H       17.4270910   11.3743234   13.4528844
    N       17.5606678   12.9717857   14.8291438
    C       18.6953566   13.5609264   15.5594778
    H       19.0968179   12.8258963   16.2681787
    H       18.3591602   14.4487832   16.1100231
    H       19.4855918   13.8615092   14.8598925
    C       16.3251336   12.8199037   15.4533603
    O       16.1961309   13.0007161   16.6528428
    C       15.0748614   12.7687361   14.5362065
    H       15.3153965   12.2871940   13.5814421
    H       14.3162675   12.1508686   15.0328687
    N       14.5064161   14.1154412   14.2937040
    C       14.9843568   14.7880720   13.1883389
    C       14.3402950   14.3239252   11.8897896
    H       14.3147489   15.1579159   11.1789272
    H       13.3160711   13.9747031   12.0661229
    H       14.9289268   13.5056099   11.4598903
    O       16.1288165   15.1897264   13.1609607
    C       13.8827144   14.8881374   15.3999879
    H       14.6277000   14.9669925   16.2007461
    H       13.0638007   14.2788696   15.8023104
    C       13.3248867   16.3089726   15.1623318
    C       12.9268521   16.8220803   13.9062495
    H       12.8900893   16.1948291   13.0270160
    C       12.4863578   18.1497577   13.7802029
    H       12.1693400   18.5270614   12.8115751
    C       12.4459152   18.9886095   14.9017879
    H       12.1050859   20.0154860   14.8025869
    C       12.8427659   18.4984089   16.1522717
    H       12.8178328   19.1475920   17.0235544
    C       13.2794124   17.1705991   16.2774627
    H       13.5967640   16.8096617   17.2521353
*
