! b3lyp 6-31g** TightSCF  NoKeepInts

%scf
  MaxCore 512
end
*xyz  0  1
    C       18.2175989   13.6588639   13.2371743
    H       18.6723545   14.6056751   13.5546066
    H       17.4214609   13.8613517   12.5100398
    H       18.9906900   13.0442311   12.7586507
    N       17.6536204   12.9588555   14.4063612
    C       18.0122312   11.5349418   14.5302227
    H       17.1835595   10.9805580   14.9888723
    H       18.9066917   11.4350716   15.1577887
    H       18.2131071   11.1060679   13.5402266
    C       17.0107876   13.6207849   15.4529853
    O       16.7811540   13.0543602   16.5076898
    C       16.2124858   14.8887138   15.0735020
    H       16.2590791   15.5796201   15.9248505
    H       16.6840020   15.4052881   14.2300326
    N       14.8099726   14.5262023   14.7223129
    C       14.5668508   14.2305923   13.4014066
    C       14.1392090   12.7999179   13.1448892
    H       14.1255349   12.6049254   12.0661299
    H       13.1356179   12.6382011   13.5538196
    H       14.8367253   12.1072668   13.6294892
    O       14.8469155   14.9946649   12.5002638
    C       13.9079800   15.1533692   15.7130546
    H       14.4105206   15.2856077   16.6798029
    H       13.0871079   14.4485636   15.8951005
    C       13.3097088   16.4876367   15.2593863
    C       14.1285922   17.5497652   14.8259086
    H       15.2073713   17.4392622   14.8001262
    C       13.5585081   18.7641910   14.4117553
    H       14.1961280   19.5761438   14.0724586
    C       12.1656581   18.9286681   14.4312166
    H       11.7250928   19.8678807   14.1085424
    C       11.3419056   17.8789048   14.8631372
    H       10.2626933   18.0059903   14.8761255
    C       11.9123025   16.6639287   15.2753241
    H       11.2642824   15.8574335   15.6062467
*
