! b3lyp 6-31g** TightSCF  NoKeepInts

%scf
  MaxCore 512
end
*xyz  0  1
    C       19.0177062   13.6839449   13.9893340
    H       19.3128901   13.8667509   12.9482771
    H       19.2130580   12.6343162   14.2425277
    H       19.6170130   14.3327292   14.6406510
    N       17.5831123   13.9740467   14.1625666
    C       17.1792808   14.3838203   15.5199201
    H       16.7773141   15.4041083   15.4935086
    H       18.0396215   14.3600945   16.2007816
    H       16.4139153   13.6973884   15.9024147
    C       16.6595295   13.5535503   13.2053262
    O       17.0105285   12.9281973   12.2203131
    C       15.2923876   14.2754900   13.2054429
    H       15.5345667   15.2807907   13.5401457
    H       14.8938302   14.3171215   12.1841960
    N       14.3458640   13.5631104   14.1062735
    C       13.5853929   12.4736687   13.7427590
    C       12.7143755   12.6479504   12.5104358
    H       12.2407517   13.6360515   12.5120528
    H       11.9348698   11.8769667   12.5019820
    H       13.3287933   12.5435700   11.6087541
    O       13.6156435   11.4383638   14.3734314
    C       13.6835889   14.4631843   15.1180069
    H       13.8536370   13.9926360   16.0946758
    H       12.6006147   14.3964023   14.9511282
    C       13.9902005   15.9703433   15.2880422
    C       13.7808138   16.5245933   16.5691385
    H       13.6324258   15.8677818   17.4220038
    C       13.8196831   17.9112123   16.7850052
    H       13.7169242   18.3093030   17.7912018
    C       13.9580162   18.7832832   15.6990997
    H       13.9703742   19.8579644   15.8594358
    C       13.9964063   18.2646963   14.3996511
    H       14.0129891   18.9395952   13.5477456
    C       13.9588570   16.8759106   14.1966153
    H       13.8725249   16.5145631   13.1766560
*
