! b3lyp 6-31g** TightSCF  NoKeepInts

%scf
  MaxCore 512
end
*xyz  0  1
    C       18.8868409   12.6941493   13.7340303
    H       18.8871006   12.2659938   12.7235505
    H       19.6149990   12.1585351   14.3559564
    H       19.1755538   13.7507604   13.6656995
    N       17.5468290   12.5806158   14.3355774
    C       16.7209375   11.4611633   13.8468110
    H       16.2673775   10.9343362   14.6957300
    H       17.3376726   10.7484398   13.2845652
    H       15.9309703   11.8450368   13.1899573
    C       17.2009213   13.3513277   15.4453873
    O       18.0179277   14.0785022   15.9841905
    C       15.6902625   13.5913869   15.6700933
    H       15.5430953   13.7031783   16.7524949
    H       15.0977276   12.7283706   15.3461984
    N       15.2497816   14.8186481   14.9575843
    C       14.8179990   14.7291129   13.6499178
    C       15.8659826   15.2300144   12.6676907
    H       15.3674685   15.6884783   11.8061535
    H       16.4763415   14.3888368   12.3207976
    H       16.5199299   15.9731234   13.1398445
    O       14.1005452   13.8118391   13.3035455
    C       14.3301626   15.5948215   15.8462040
    H       14.9564494   16.1170432   16.5805275
    H       13.7293751   14.8728309   16.4153906
    C       13.3358257   16.6372025   15.2784040
    C       13.4829043   17.3079558   14.0420768
    H       14.3902223   17.2215187   13.4607158
    C       12.4917115   18.1878416   13.5779890
    H       12.6284457   18.7114008   12.6354312
    C       11.3309852   18.4022075   14.3323861
    H       10.5639946   19.0817519   13.9712042
    C       11.1659517   17.7437897   15.5574073
    H       10.2660798   17.9071219   16.1445429
    C       12.1601462   16.8688132   16.0224673
    H       12.0089818   16.3573516   16.9689776
*
