! b3lyp 6-31g** TightSCF  NoKeepInts

%scf
  MaxCore 512
end
*xyz  0  1
    C       18.0051819   14.1309982   15.8290527
    H       17.6571155   14.6657195   16.7216529
    H       18.0119580   14.8202859   14.9750859
    H       19.0279301   13.7701704   15.9983514
    N       17.1109504   12.9961097   15.5559863
    C       17.3807818   11.8412398   16.4272578
    H       16.6014912   11.0815866   16.2856002
    H       17.3810714   12.1603170   17.4772678
    H       18.3579328   11.4075431   16.1785516
    C       16.7607106   12.7565332   14.2355180
    O       17.2915786   11.8420381   13.6304373
    C       15.2869812   13.1086275   13.9052590
    H       14.9322663   12.4318760   13.1172224
    H       14.6784914   12.9334125   14.8017856
    N       15.0829536   14.5069954   13.4655532
    C       15.2393063   14.8889765   12.1537472
    C       13.9453185   14.9330291   11.3639277
    H       14.1525436   15.2486180   10.3346483
    H       13.2459538   15.6405756   11.8225582
    H       13.4869524   13.9377150   11.3499150
    O       16.3136904   14.7975744   11.5984972
    C       15.3344116   15.6216981   14.3949136
    H       16.1235395   16.2714380   13.9936452
    H       15.6859786   15.2234109   15.3517990
    C       14.0791388   16.4380210   14.6727471
    C       13.2252607   16.0859947   15.7341984
    H       13.4540376   15.2249018   16.3557450
    C       12.0686921   16.8393452   15.9919199
    H       11.4090788   16.5623670   16.8101525
    C       11.7639598   17.9511658   15.1915086
    H       10.8691141   18.5344957   15.3907421
    C       12.6150989   18.3120726   14.1356589
    H       12.3793319   19.1752845   13.5186483
    C       13.7713627   17.5583365   13.8787502
    H       14.4273352   17.8450266   13.0611958
*
