! b3lyp 6-31g** TightSCF  NoKeepInts

%scf
  MaxCore 512
end
*xyz  0  1
    C       18.7443338   13.0829378   14.1540626
    H       19.2788098   13.2521826   13.2106236
    H       18.4240790   12.0347316   14.2044890
    H       19.4310613   13.2917404   14.9839709
    N       17.5617750   13.9618285   14.2250153
    C       17.2743370   14.5530327   15.5468994
    H       16.2635898   14.2723616   15.8669928
    H       17.3483748   15.6461003   15.4864532
    H       17.9887908   14.1911849   16.2969015
    C       16.7532883   14.1437425   13.0994968
    O       16.9868566   13.5659988   12.0525138
    C       15.4594530   14.9705380   13.2779245
    H       15.6331297   15.7531953   14.0223558
    H       15.2324965   15.4641415   12.3244948
    N       14.3342805   14.0758335   13.6554515
    C       13.5461867   13.4986676   12.6834203
    C       13.6535456   11.9890650   12.6037784
    H       14.6961984   11.7042216   12.4192156
    H       13.0301265   11.6179933   11.7817837
    H       13.3183550   11.5387773   13.5444111
    O       13.0170363   14.1551088   11.8097036
    C       13.5099330   14.4495098   14.8376061
    H       13.8330714   13.8204611   15.6763511
    H       12.4576795   14.1974708   14.6483856
    C       13.5651750   15.9152363   15.2735321
    C       13.9213558   16.2502249   16.5937342
    H       14.1798192   15.4710048   17.3049995
    C       13.9514499   17.5939153   17.0004655
    H       14.2331258   17.8489709   18.0187319
    C       13.6109322   18.6088042   16.0931016
    H       13.6307874   19.6485099   16.4081926
    C       13.2315944   18.2814627   14.7823766
    H       12.9563504   19.0667939   14.0831171
    C       13.2015313   16.9380820   14.3767685
    H       12.8985905   16.6896699   13.3621798
*
