--Link1--
%nproc=1
%mem=512MB
%chk=
## b3lyp/6-31g** maxdisk=16GB, pop=(minimal, MK), 5d,

Generated by mdgx

0   1
    C       17.1667166   12.3563379   16.7886357
    C       17.6299074   13.5099945   15.9051395
    O       18.2612818   13.2752373   14.8924342
    N       17.3219885   14.8379333   16.2618864
    C       16.6103156   15.1957321   17.5076242
    C       15.0898434   15.4059485   17.3317871
    C       14.4076852   15.6899036   18.6651931
    C       13.8226225   14.6456049   19.4002056
    C       13.2017397   14.9002437   20.6345656
    C       13.1548164   16.2152040   21.1617212
    O       12.5415471   16.4590753   22.3798661
    C       11.9198007   15.4306163   23.1601887
    C       13.7542663   17.2789312   20.4130828
    O       13.7955694   18.6130584   20.7926253
    C       13.2214060   19.1266742   21.9993560
    C       14.3695835   16.9973635   19.1814455
    C       17.6861835   15.9351865   15.3296819
    C       16.7407028   16.0795823   14.1053218
    O       15.6564412   15.5171459   14.0767400
    N       17.1308752   16.9319106   13.0501284
    C       18.4642223   17.5593489   13.0123943
    C       16.2455918   17.1028429   11.8835622
    H       17.3962040   11.3855899   16.3358963
    H       16.0987183   12.4624950   17.0013785
    H       17.6365066   12.4476865   17.7730781
    H       17.0492451   16.1248571   17.8925238
    H       16.7870005   14.4318153   18.2723031
    H       14.6521752   14.5153910   16.8642199
    H       14.9175118   16.2401998   16.6410446
    H       13.8472498   13.6295449   19.0125763
    H       12.7617805   14.0627979   21.1651681
    H       11.5005198   15.8577167   24.0792387
    H       12.6506868   14.6625920   23.4425391
    H       11.1038012   14.9581212   22.5992296
    H       13.3853742   20.2094190   22.0578164
    H       13.6888911   18.6676966   22.8790992
    H       12.1394315   18.9479685   22.0226918
    H       14.8177340   17.8156692   18.6256857
    H       18.7087988   15.7648921   14.9712602
    H       17.6847594   16.8909528   15.8683066
    H       18.6258263   18.1390112   13.9296497
    H       18.5499661   18.2341568   12.1518646
    H       19.2330055   16.7809927   12.9316280
    H       15.2666763   17.4695009   12.2167458
    H       16.1187924   16.1381490   11.3766836
    H       16.6710378   17.8247081   11.1755867


