%nprocshared=8
%mem=14GB
# b3lyp/6-31g(d,p)

Generated by mdgx

0   1
    C       16.7693316   17.1384864   15.3022357
    C       17.1661940   15.9540448   14.4322833
    O       17.4953061   16.1564307   13.2801027
    N       17.1502261   14.6429933   14.9508210
    C       16.6464278   14.3313084   16.3148680
    C       17.4697844   13.2324442   17.0396479
    C       15.1021643   14.0752602   16.3240330
    C       14.4982252   14.1328215   17.7535800
    C       12.9612079   13.9756548   17.7447597
    C       12.5263906   12.6851374   17.0167509
    C       13.1170646   12.6110336   15.5918361
    C       14.6540556   12.7769560   15.5952075
    C       17.6713784   13.5465330   14.0841730
    C       19.2212028   13.4645066   14.0059001
    O       19.9286364   14.1097416   14.7646899
    N       19.7986844   12.5763490   13.0718852
    C       18.9805618   11.8564785   12.0777230
    C       21.2666413   12.4595667   12.9842292
    H       16.7753274   18.0716360   14.7288160
    H       17.4673439   17.1962787   16.1429365
    H       15.8003236   16.9607586   15.7758525
    H       16.8121067   15.2216319   16.9286338
    H       17.3363739   12.2416720   16.5934268
    H       17.1889053   13.1666604   18.0962410
    H       18.5371599   13.4799714   17.0096549
    H       14.6473100   14.9072312   15.7714955
    H       14.7621308   15.0857435   18.2281218
    H       14.9244386   13.3351148   18.3727561
    H       12.5111104   14.8440159   17.2474791
    H       12.5855064   13.9642101   18.7751600
    H       11.4317452   12.6376713   16.9674936
    H       12.8617994   11.8137354   17.5930580
    H       12.6707048   13.3995137   14.9730133
    H       12.8513418   11.6520712   15.1304679
    H       15.0039257   12.7871784   14.5570607
    H       15.1012625   11.9013856   16.0799405
    H       17.2783099   13.6868978   13.0697904
    H       17.2991462   12.5755616   14.4281846
    H       18.4894466   12.5792067   11.4143214
    H       18.2195536   11.2552705   12.5905639
    H       19.6059580   11.1885676   11.4726298
    H       21.6740661   12.2017854   13.9698715
    H       21.6900083   13.4172455   12.6564980
    H       21.5524116   11.6784380   12.2690060


