%nprocshared=8
%mem=14GB
# b3lyp/6-31g(d,p)

Generated by mdgx

0   1
    C       13.3347041   19.5339747   16.4165457
    N       12.8427043   18.1896832   16.0516688
    C       11.9195801   17.5193513   16.9917556
    C       13.1932558   17.6116486   14.8060968
    O       13.8847366   18.2200705   14.0043482
    C       12.6903040   16.1764490   14.5116764
    N       13.2922039   15.4608465   13.3608077
    C       12.8621893   15.9636546   12.0448742
    C       14.7485756   15.2223166   13.4552448
    C       15.1737705   14.5102991   14.7348094
    C       14.9367391   13.1282326   14.8672975
    C       15.3101157   12.4479387   16.0386146
    C       15.9258056   13.1435197   17.0909520
    C       16.1697368   14.5207647   16.9706642
    C       15.7973440   15.2013687   15.7981288
    F       16.0437536   16.5274681   15.7053927
    H       13.1792565   19.7235700   17.4859047
    H       12.7951370   20.2900878   15.8329031
    H       14.4079167   19.6063681   16.1998714
    H       11.6253693   18.2052018   17.7959247
    H       12.4157416   16.6458046   17.4325379
    H       11.0156042   17.1977270   16.4599450
    H       11.6035828   16.2362991   14.3722535
    H       12.8499934   15.5784279   15.4169964
    H       11.7681815   16.0338171   12.0001518
    H       13.1922197   15.2819474   11.2511056
    H       13.2841862   16.9556614   11.8438089
    H       15.2932676   16.1686405   13.3598373
    H       15.0625235   14.5973513   12.6100732
    H       14.4568919   12.5798010   14.0613434
    H       15.1206361   11.3824586   16.1303196
    H       16.2131255   12.6166367   17.9962839
    H       16.6467475   15.0571131   17.7857622


