 Entering Gaussian System, Link 0=/data/opt/apps/g09-C01/g09
 Initial command:
 /data/opt/apps/g09-C01/l1.exe /tmp/g09-tuu61186-38021e956b4d176x/Gau-38054.inp -scrdir=/tmp/g09-tuu61186-38021e956b4d176x/
 Entering Link 1 = /data/opt/apps/g09-C01/l1.exe PID=     38057.
  
 Copyright (c) 1988,1990,1992,1993,1995,1998,2003,2009,2011,
            Gaussian, Inc.  All Rights Reserved.
  
 This is part of the Gaussian(R) 09 program.  It is based on
 the Gaussian(R) 03 system (copyright 2003, Gaussian, Inc.),
 the Gaussian(R) 98 system (copyright 1998, Gaussian, Inc.),
 the Gaussian(R) 94 system (copyright 1995, Gaussian, Inc.),
 the Gaussian 92(TM) system (copyright 1992, Gaussian, Inc.),
 the Gaussian 90(TM) system (copyright 1990, Gaussian, Inc.),
 the Gaussian 88(TM) system (copyright 1988, Gaussian, Inc.),
 the Gaussian 86(TM) system (copyright 1986, Carnegie Mellon
 University), and the Gaussian 82(TM) system (copyright 1983,
 Carnegie Mellon University). Gaussian is a federally registered
 trademark of Gaussian, Inc.
  
 This software contains proprietary and confidential information,
 including trade secrets, belonging to Gaussian, Inc.
  
 This software is provided under written license and may be
 used, copied, transmitted, or stored only in accord with that
 written license.
  
 The following legend is applicable only to US Government
 contracts under FAR:
  
                    RESTRICTED RIGHTS LEGEND
  
 Use, reproduction and disclosure by the US Government is
 subject to restrictions as set forth in subparagraphs (a)
 and (c) of the Commercial Computer Software - Restricted
 Rights clause in FAR 52.227-19.
  
 Gaussian, Inc.
 340 Quinnipiac St., Bldg. 40, Wallingford CT 06492
  
  
 ---------------------------------------------------------------
 Warning -- This program may not be used in any manner that
 competes with the business of Gaussian, Inc. or will provide
 assistance to any competitor of Gaussian, Inc.  The licensee
 of this program is prohibited from giving any competitor of
 Gaussian, Inc. access to this program.  By using this program,
 the user acknowledges that Gaussian, Inc. is engaged in the
 business of creating and licensing software in the field of
 computational chemistry and represents and warrants to the
 licensee that it is not a competitor of Gaussian, Inc. and that
 it will not use this program in any manner prohibited above.
 ---------------------------------------------------------------
  

 Cite this work as:
 Gaussian 09, Revision C.01,
 M. J. Frisch, G. W. Trucks, H. B. Schlegel, G. E. Scuseria, 
 M. A. Robb, J. R. Cheeseman, G. Scalmani, V. Barone, B. Mennucci, 
 G. A. Petersson, H. Nakatsuji, M. Caricato, X. Li, H. P. Hratchian, 
 A. F. Izmaylov, J. Bloino, G. Zheng, J. L. Sonnenberg, M. Hada, 
 M. Ehara, K. Toyota, R. Fukuda, J. Hasegawa, M. Ishida, T. Nakajima, 
 Y. Honda, O. Kitao, H. Nakai, T. Vreven, J. A. Montgomery, Jr., 
 J. E. Peralta, F. Ogliaro, M. Bearpark, J. J. Heyd, E. Brothers, 
 K. N. Kudin, V. N. Staroverov, T. Keith, R. Kobayashi, J. Normand, 
 K. Raghavachari, A. Rendell, J. C. Burant, S. S. Iyengar, J. Tomasi, 
 M. Cossi, N. Rega, J. M. Millam, M. Klene, J. E. Knox, J. B. Cross, 
 V. Bakken, C. Adamo, J. Jaramillo, R. Gomperts, R. E. Stratmann, 
 O. Yazyev, A. J. Austin, R. Cammi, C. Pomelli, J. W. Ochterski, 
 R. L. Martin, K. Morokuma, V. G. Zakrzewski, G. A. Voth, 
 P. Salvador, J. J. Dannenberg, S. Dapprich, A. D. Daniels, 
 O. Farkas, J. B. Foresman, J. V. Ortiz, J. Cioslowski, 
 and D. J. Fox, Gaussian, Inc., Wallingford CT, 2010.
 
 ******************************************
 Gaussian 09:  EM64L-G09RevC.01 23-Sep-2011
                 8-Jun-2026 
 ******************************************
 %nprocshared=8
 Will use up to    8 processors via shared memory.
 %mem=14GB
 ------------------
 # b3lyp/6-31g(d,p)
 ------------------
 1/38=1/1;
 2/12=2,17=6,18=5,40=1/2;
 3/5=1,6=6,7=101,11=2,16=1,25=1,30=1,74=-5/1,2,3;
 4//1;
 5/5=2,38=5/2;
 6/7=2,8=2,9=2,10=2,28=1/1;
 99/5=1,9=1/99;
 -----------------
 Generated by mdgx
 -----------------
 Charge =  0 Multiplicity = 1
 Symbolic Z-Matrix:
 C                     12.03931   16.13067   15.77893 
 N                     12.11308   17.57002   15.45788 
 C                     10.84093   18.18105   15.02158 
 C                     13.28733   18.33308   15.51662 
 O                     13.30508   19.5132   15.20979 
 C                     14.58209   17.64978   15.996 
 N                     15.32856   17.04686   14.86902 
 C                     16.26226   17.90651   14.11779 
 C                     15.99404   15.79724   15.31488 
 C                     15.09571   14.57443   15.17877 
 C                     14.76978   14.09425   13.89687 
 C                     13.93739   12.97369   13.74553 
 C                     13.42531   12.31948   14.87592 
 C                     13.74878   12.78463   16.15939 
 C                     14.58252   13.90541   16.31065 
 F                     14.87781   14.34002   17.5551 
 H                     10.99715   15.78767   15.77346 
 H                     12.45349   15.94384   16.77667 
 H                     12.59831   15.56171   15.02776 
 H                     10.15054   17.41248   14.65188 
 H                     11.0276   18.89634   14.21072 
 H                     10.37935   18.70582   15.86722 
 H                     14.3236   16.89785   16.74955 
 H                     15.20489   18.40127   16.49828 
 H                     17.25741   17.90112   14.58097 
 H                     15.88502   18.93541   14.06264 
 H                     16.37269   17.52412   13.09538 
 H                     16.36504   15.9031   16.34198 
 H                     16.87326   15.60418   14.68668 
 H                     15.15704   14.59538   13.01397 
 H                     13.68846   12.61383   12.75152 
 H                     12.78037   11.45362   14.75721 
 H                     13.3517   12.27645   17.03328 
 
                          Input orientation:                          
 ---------------------------------------------------------------------
 Center     Atomic      Atomic             Coordinates (Angstroms)
 Number     Number       Type             X           Y           Z
 ---------------------------------------------------------------------
      1          6           0       12.039311   16.130674   15.778931
      2          7           0       12.113078   17.570025   15.457882
      3          6           0       10.840926   18.181054   15.021581
      4          6           0       13.287331   18.333077   15.516623
      5          8           0       13.305081   19.513203   15.209791
      6          6           0       14.582089   17.649780   15.996004
      7          7           0       15.328562   17.046859   14.869022
      8          6           0       16.262260   17.906511   14.117795
      9          6           0       15.994042   15.797236   15.314876
     10          6           0       15.095707   14.574427   15.178773
     11          6           0       14.769780   14.094254   13.896867
     12          6           0       13.937395   12.973686   13.745532
     13          6           0       13.425311   12.319477   14.875924
     14          6           0       13.748780   12.784627   16.159387
     15          6           0       14.582524   13.905405   16.310645
     16          9           0       14.877809   14.340024   17.555102
     17          1           0       10.997147   15.787670   15.773455
     18          1           0       12.453487   15.943840   16.776675
     19          1           0       12.598312   15.561705   15.027760
     20          1           0       10.150542   17.412479   14.651879
     21          1           0       11.027595   18.896336   14.210715
     22          1           0       10.379354   18.705817   15.867223
     23          1           0       14.323595   16.897853   16.749552
     24          1           0       15.204893   18.401269   16.498277
     25          1           0       17.257408   17.901118   14.580972
     26          1           0       15.885021   18.935406   14.062637
     27          1           0       16.372686   17.524118   13.095380
     28          1           0       16.365043   15.903102   16.341983
     29          1           0       16.873258   15.604178   14.686678
     30          1           0       15.157042   14.595381   13.013967
     31          1           0       13.688462   12.613833   12.751521
     32          1           0       12.780370   11.453624   14.757212
     33          1           0       13.351702   12.276454   17.033279
 ---------------------------------------------------------------------
                    Distance matrix (angstroms):
                    1          2          3          4          5
     1  C    0.000000
     2  N    1.476565   0.000000
     3  C    2.492743   1.477189   0.000000
     4  C    2.544984   1.401631   2.500615   0.000000
     5  O    3.656173   2.293112   2.807508   1.219490   0.000000
     6  C    2.969937   2.528231   3.902314   1.540488   2.391908
     7  N    3.533625   3.310557   4.631258   2.498073   3.208340
     8  C    4.873015   4.373187   5.503005   3.314949   3.538195
     9  C    3.995802   4.269088   5.685352   3.714496   4.588024
    10  C    3.481903   4.236459   5.579931   4.184713   5.253457
    11  C    3.891611   4.644977   5.779517   4.773771   5.764904
    12  C    4.207613   5.233221   6.191373   5.681762   6.731207
    13  C    4.154713   5.443242   6.407679   6.049209   7.202473
    14  C    3.776647   5.105650   6.234713   5.604586   6.809723
    15  C    3.420888   4.500534   5.826013   4.681056   5.855863
    16  F    3.797141   4.740777   6.121165   4.757047   5.893702
    17  H    1.097172   2.126424   2.513565   3.433658   4.418583
    18  H    1.096331   2.121218   3.268919   2.826921   3.990074
    19  H    1.095658   2.110404   3.154272   2.897281   4.018332
    20  H    2.545725   2.127442   1.097277   3.381527   3.830851
    21  H    3.336428   2.119622   1.097258   2.670029   2.562346
    22  H    3.065063   2.112672   1.097057   2.952657   3.105474
    23  H    2.597812   2.647000   4.094078   2.157273   3.201295
    24  H    3.961562   3.366408   4.612302   2.155305   2.550662
    25  H    5.638982   5.229027   6.437682   4.101652   4.314524
    26  H    5.059810   4.247178   5.189558   3.037247   2.881995
    27  H    5.284059   4.871117   5.894250   4.004528   4.223433
    28  H    4.368155   4.651824   6.119510   4.007283   4.866010
    29  H    4.983699   5.207554   6.568217   4.581983   5.318459
    30  H    4.440991   4.907845   5.959566   4.871291   5.695294
    31  H    4.924742   5.862598   6.652487   6.365253   7.334260
    32  H    4.844364   6.192461   7.006400   6.939783   8.089311
    33  H    4.260372   5.660208   6.724227   6.243963   7.463097
                    6          7          8          9         10
     6  C    0.000000
     7  N    1.480143   0.000000
     8  C    2.533092   1.474834   0.000000
     9  C    2.426822   1.484321   2.440079   0.000000
    10  C    3.223269   2.502617   3.686368   1.523415   0.000000
    11  C    4.133203   3.158354   4.099952   2.531741   1.407152
    12  C    5.229350   4.448406   5.465925   3.829500   2.440950
    13  C    5.568199   5.096131   6.311734   4.345787   2.822541
    14  C    4.938705   4.725185   6.059651   3.851001   2.445240
    15  C    3.757571   3.536041   4.861991   2.561828   1.411411
    16  F    3.670520   3.839942   5.143113   2.896213   2.397782
    17  H    4.045837   4.600512   5.912032   5.017903   4.315530
    18  H    2.837362   3.622409   5.042665   3.833260   3.377856
    19  H    3.038573   3.112097   4.444173   3.415977   2.689704
    20  H    4.636981   5.195451   6.154869   6.098776   5.725977
    21  H    4.168403   4.727816   5.328236   5.957280   6.013781
    22  H    4.335295   5.314433   6.189344   6.347413   6.307641
    23  H    1.095466   2.137417   3.420813   2.461716   2.908920
    24  H    1.097679   2.122308   2.651322   2.967185   4.049412
    25  H    3.036910   2.129127   1.097671   2.561451   4.012131
    26  H    2.662400   2.127560   1.097259   3.380548   4.570221
    27  H    3.411107   2.112766   1.097156   2.837544   3.830389
    28  H    2.519823   2.133562   2.995200   1.097177   2.174776
    29  H    3.338903   2.121477   2.449016   1.097691   2.112400
    30  H    4.307258   3.079025   3.661082   2.727491   2.165776
    31  H    6.056897   5.179330   6.041819   4.692605   3.422838
    32  H    6.570627   6.147362   7.360174   5.431909   3.908696
    33  H    5.609137   5.598995   6.976313   4.725545   3.429493
                   11         12         13         14         15
    11  C    0.000000
    12  C    1.404079   0.000000
    13  C    2.432279   1.402856   0.000000
    14  C    2.806521   2.428583   1.402952   0.000000
    15  C    2.428385   2.804300   2.431612   1.405045   0.000000
    16  F    3.668072   4.155007   3.656550   2.375287   1.350836
    17  H    4.541145   4.547091   4.327806   4.091295   4.084902
    18  H    4.132732   4.495734   4.206341   3.469792   2.984158
    19  H    2.854401   3.183566   3.349481   3.211903   2.885520
    20  H    5.737422   5.904625   6.059123   6.052843   5.890122
    21  H    6.096100   6.615217   7.031829   6.968153   6.477392
    22  H    6.665182   7.072379   7.144639   6.819009   6.395875
    23  H    4.024557   4.957053   5.027815   4.194918   3.035528
    24  H    5.050449   6.216334   6.541188   5.812210   4.542614
    25  H    4.598751   6.000003   6.776923   6.401589   5.110038
    26  H    4.970714   6.279801   7.105077   6.840465   5.661356
    27  H    3.869839   5.201900   6.240644   6.223809   5.161172
    28  H    3.434441   4.606138   4.861452   4.074685   2.677526
    29  H    2.707082   4.052719   4.765859   4.458823   3.281853
    30  H    1.086560   2.156993   3.412552   3.893032   3.416756
    31  H    2.161646   1.086057   2.160783   3.412677   3.890356
    32  H    3.416266   2.161665   1.086160   2.162286   3.416452
    33  H    3.892611   3.411518   2.159040   1.086093   2.165780
                   16         17         18         19         20
    16  F    0.000000
    17  H    4.508823   0.000000
    18  H    3.009238   1.775321   0.000000
    19  H    3.616085   1.780688   1.796025   0.000000
    20  H    6.341587   2.148180   3.460522   3.091638   0.000000
    21  H    6.838789   3.479495   4.163477   3.775509   1.779235
    22  H    6.491932   2.984299   3.571785   3.938770   1.789452
    23  H    2.738349   3.640128   2.099567   2.779652   4.698877
    24  H    4.209225   5.006136   3.699554   4.125507   5.471138
    25  H    5.214338   6.714131   5.632913   5.232557   7.123997
    26  H    5.859123   6.060236   5.300084   4.807887   5.962445
    27  H    5.679985   6.251701   5.604403   4.672372   6.414844
    28  H    2.475224   5.399154   3.935847   4.003998   6.614733
    29  H    3.715879   5.978581   4.900799   4.288742   6.961757
    30  H    4.556872   5.132354   4.825507   3.396505   5.973595
    31  H    5.241056   5.142811   5.368052   3.880675   6.257415
    32  H    4.534175   4.795475   4.934280   4.121003   6.514218
    33  H    2.619088   4.411317   3.784489   3.922063   6.503633
                   21         22         23         24         25
    21  H    0.000000
    22  H    1.789003   0.000000
    23  H    4.615543   4.427672   0.000000
    24  H    4.788303   4.876147   1.760705   0.000000
    25  H    6.319661   7.043409   3.783720   2.852898   0.000000
    26  H    4.859839   5.798414   3.716071   2.584612   1.794957
    27  H    5.630004   6.708171   4.236031   3.703086   1.769703
    28  H    6.479977   6.626393   2.307196   2.758844   2.808833
    29  H    6.725817   7.292780   3.525596   3.726802   2.331239
    30  H    6.081344   6.918313   4.466610   5.160183   4.218405
    31  H    6.977055   7.600662   5.894105   7.059190   6.636238
    32  H    7.665822   7.719540   5.999216   7.561705   7.851440
    33  H    7.562484   7.178526   4.731005   6.421363   7.273596
                   26         27         28         29         30
    26  H    0.000000
    27  H    1.779084   0.000000
    28  H    3.823703   3.628799   0.000000
    29  H    3.530314   2.543417   1.757177   0.000000
    30  H    4.523879   3.172053   3.774267   2.600198   0.000000
    31  H    6.819544   5.606620   5.556509   4.778066   2.480350
    32  H    8.130089   7.246883   5.929522   5.829563   4.307912
    33  H    7.719071   7.222975   4.765573   5.383460   4.979111
                   31         32         33
    31  H    0.000000
    32  H    2.488678   0.000000
    33  H    4.308212   2.486755   0.000000
 Stoichiometry    C12H17FN2O
 Framework group  C1[X(C12H17FN2O)]
 Deg. of freedom    93
 Full point group                 C1      NOp   1
 Largest Abelian subgroup         C1      NOp   1
 Largest concise Abelian subgroup C1      NOp   1
                         Standard orientation:                         
 ---------------------------------------------------------------------
 Center     Atomic      Atomic             Coordinates (Angstroms)
 Number     Number       Type             X           Y           Z
 ---------------------------------------------------------------------
      1          6           0       -0.629234   -1.896498    0.243248
      2          7           0       -2.025145   -1.474502    0.011736
      3          6           0       -2.915329   -2.522059   -0.528897
      4          6           0       -2.506942   -0.178605    0.242153
      5          8           0       -3.662187    0.131237    0.004325
      6          6           0       -1.540057    0.870009    0.824083
      7          7           0       -0.819689    1.598125   -0.244438
      8          6           0       -1.472479    2.779355   -0.839163
      9          6           0        0.558757    1.918409    0.203353
     10          6           0        1.547580    0.799499   -0.098408
     11          6           0        1.906136    0.533917   -1.432942
     12          6           0        2.809479   -0.497113   -1.736898
     13          6           0        3.366480   -1.270982   -0.707877
     14          6           0        3.022067   -1.011223    0.627106
     15          6           0        2.118818    0.021178    0.931147
     16          9           0        1.796784    0.251709    2.222622
     17          1           0       -0.526037   -2.979812    0.103365
     18          1           0       -0.326355   -1.655771    1.269044
     19          1           0        0.027409   -1.387860   -0.471296
     20          1           0       -2.329944   -3.312970   -1.014491
     21          1           0       -3.594696   -2.088659   -1.273613
     22          1           0       -3.504548   -2.957253    0.287780
     23          1           0       -0.842556    0.365980    1.501943
     24          1           0       -2.119915    1.575797    1.432793
     25          1           0       -1.233220    3.686558   -0.269408
     26          1           0       -2.560551    2.643482   -0.879372
     27          1           0       -1.104986    2.926479   -1.862419
     28          1           0        0.567626    2.177203    1.269535
     29          1           0        0.923539    2.803934   -0.333027
     30          1           0        1.477870    1.123910   -2.238615
     31          1           0        3.076185   -0.696667   -2.770612
     32          1           0        4.064042   -2.069145   -0.944699
     33          1           0        3.454764   -1.611170    1.422365
 ---------------------------------------------------------------------
 Rotational constants (GHZ):      0.7223206      0.3699482      0.3143834
 Standard basis: 6-31G(d,p) (6D, 7F)
 There are   325 symmetry adapted basis functions of A   symmetry.
 Integral buffers will be    131072 words long.
 Raffenetti 2 integral format.
 Two-electron integral symmetry is turned on.
   325 basis functions,   567 primitive gaussians,   325 cartesian basis functions
    60 alpha electrons       60 beta electrons
       nuclear repulsion energy      1142.4883323783 Hartrees.
 NAtoms=   33 NActive=   33 NUniq=   33 SFac= 1.00D+00 NAtFMM=   60 NAOKFM=F Big=F
 One-electron integrals computed using PRISM.
 NBasis=   325 RedAO= T  NBF=   325
 NBsUse=   325 1.00D-06 NBFU=   325
 Harris functional with IExCor=  402 diagonalized for initial guess.
 ExpMin= 1.61D-01 ExpMax= 7.00D+03 ExpMxC= 1.05D+03 IAcc=1 IRadAn=         1 AccDes= 0.00D+00
 HarFok:  IExCor=  402 AccDes= 0.00D+00 IRadAn=         1 IDoV= 1
 ScaDFX=  1.000000  1.000000  1.000000  1.000000
 FoFCou: FMM=F IPFlag=           0 FMFlag=      100000 FMFlg1=           0
         NFxFlg=           0 DoJE=T BraDBF=F KetDBF=T FulRan=T
         Omega=  0.000000  0.000000  1.000000  0.000000  0.000000 ICntrl=     500 IOpCl=  0
         NMat0=    1 NMatS0=    1 NMatT0=    0 NMatD0=    1 NMtDS0=    0 NMtDT0=    0
         I1Cent=           4 NGrid=           0.
 Petite list used in FoFCou.
 Initial guess orbital symmetries:
       Occupied  (A) (A) (A) (A) (A) (A) (A) (A) (A) (A) (A) (A)
                 (A) (A) (A) (A) (A) (A) (A) (A) (A) (A) (A) (A)
                 (A) (A) (A) (A) (A) (A) (A) (A) (A) (A) (A) (A)
                 (A) (A) (A) (A) (A) (A) (A) (A) (A) (A) (A) (A)
                 (A) (A) (A) (A) (A) (A) (A) (A) (A) (A) (A) (A)
       Virtual   (A) (A) (A) (A) (A) (A) (A) (A) (A) (A) (A) (A)
                 (A) (A) (A) (A) (A) (A) (A) (A) (A) (A) (A) (A)
                 (A) (A) (A) (A) (A) (A) (A) (A) (A) (A) (A) (A)
                 (A) (A) (A) (A) (A) (A) (A) (A) (A) (A) (A) (A)
                 (A) (A) (A) (A) (A) (A) (A) (A) (A) (A) (A) (A)
                 (A) (A) (A) (A) (A) (A) (A) (A) (A) (A) (A) (A)
                 (A) (A) (A) (A) (A) (A) (A) (A) (A) (A) (A) (A)
                 (A) (A) (A) (A) (A) (A) (A) (A) (A) (A) (A) (A)
                 (A) (A) (A) (A) (A) (A) (A) (A) (A) (A) (A) (A)
                 (A) (A) (A) (A) (A) (A) (A) (A) (A) (A) (A) (A)
                 (A) (A) (A) (A) (A) (A) (A) (A) (A) (A) (A) (A)
                 (A) (A) (A) (A) (A) (A) (A) (A) (A) (A) (A) (A)
                 (A) (A) (A) (A) (A) (A) (A) (A) (A) (A) (A) (A)
                 (A) (A) (A) (A) (A) (A) (A) (A) (A) (A) (A) (A)
                 (A) (A) (A) (A) (A) (A) (A) (A) (A) (A) (A) (A)
                 (A) (A) (A) (A) (A) (A) (A) (A) (A) (A) (A) (A)
                 (A) (A) (A) (A) (A) (A) (A) (A) (A) (A) (A) (A)
                 (A) (A) (A) (A) (A) (A) (A) (A) (A) (A) (A) (A)
                 (A) (A) (A) (A) (A) (A) (A) (A) (A) (A) (A) (A)
                 (A) (A) (A) (A) (A) (A) (A) (A) (A) (A) (A) (A)
                 (A) (A) (A) (A) (A) (A) (A) (A) (A) (A) (A) (A)
                 (A) (A) (A) (A) (A) (A) (A) (A) (A) (A) (A) (A)
                 (A)
 The electronic state of the initial guess is 1-A.
 Requested convergence on RMS density matrix=1.00D-08 within 128 cycles.
 Requested convergence on MAX density matrix=1.00D-06.
 Requested convergence on             energy=1.00D-06.
 No special actions if energy rises.
 Keep R1 ints in memory in canonical form, NReq=1421144080.
 Integral accuracy reduced to 1.0D-05 until final iterations.
 Initial convergence to 1.0D-05 achieved.  Increase integral accuracy.
 SCF Done:  E(RB3LYP) =  -752.076744562     A.U. after   15 cycles
             Convg  =    0.6070D-08             -V/T =  2.0097

 **********************************************************************

            Population analysis using the SCF density.

 **********************************************************************

 Orbital symmetries:
       Occupied  (A) (A) (A) (A) (A) (A) (A) (A) (A) (A) (A) (A)
                 (A) (A) (A) (A) (A) (A) (A) (A) (A) (A) (A) (A)
                 (A) (A) (A) (A) (A) (A) (A) (A) (A) (A) (A) (A)
                 (A) (A) (A) (A) (A) (A) (A) (A) (A) (A) (A) (A)
                 (A) (A) (A) (A) (A) (A) (A) (A) (A) (A) (A) (A)
       Virtual   (A) (A) (A) (A) (A) (A) (A) (A) (A) (A) (A) (A)
                 (A) (A) (A) (A) (A) (A) (A) (A) (A) (A) (A) (A)
                 (A) (A) (A) (A) (A) (A) (A) (A) (A) (A) (A) (A)
                 (A) (A) (A) (A) (A) (A) (A) (A) (A) (A) (A) (A)
                 (A) (A) (A) (A) (A) (A) (A) (A) (A) (A) (A) (A)
                 (A) (A) (A) (A) (A) (A) (A) (A) (A) (A) (A) (A)
                 (A) (A) (A) (A) (A) (A) (A) (A) (A) (A) (A) (A)
                 (A) (A) (A) (A) (A) (A) (A) (A) (A) (A) (A) (A)
                 (A) (A) (A) (A) (A) (A) (A) (A) (A) (A) (A) (A)
                 (A) (A) (A) (A) (A) (A) (A) (A) (A) (A) (A) (A)
                 (A) (A) (A) (A) (A) (A) (A) (A) (A) (A) (A) (A)
                 (A) (A) (A) (A) (A) (A) (A) (A) (A) (A) (A) (A)
                 (A) (A) (A) (A) (A) (A) (A) (A) (A) (A) (A) (A)
                 (A) (A) (A) (A) (A) (A) (A) (A) (A) (A) (A) (A)
                 (A) (A) (A) (A) (A) (A) (A) (A) (A) (A) (A) (A)
                 (A) (A) (A) (A) (A) (A) (A) (A) (A) (A) (A) (A)
                 (A) (A) (A) (A) (A) (A) (A) (A) (A) (A) (A) (A)
                 (A) (A) (A) (A) (A) (A) (A) (A) (A) (A) (A) (A)
                 (A) (A) (A) (A) (A) (A) (A) (A) (A) (A) (A) (A)
                 (A) (A) (A) (A) (A) (A) (A) (A) (A) (A) (A) (A)
                 (A) (A) (A) (A) (A) (A) (A) (A) (A) (A) (A) (A)
                 (A) (A) (A) (A) (A) (A) (A) (A) (A) (A) (A) (A)
                 (A)
 The electronic state is 1-A.
 Alpha  occ. eigenvalues --  -24.71727 -19.09808 -14.35245 -14.32912 -10.27979
 Alpha  occ. eigenvalues --  -10.27140 -10.21869 -10.21412 -10.21217 -10.20980
 Alpha  occ. eigenvalues --  -10.20768 -10.20565 -10.20440 -10.20315 -10.20264
 Alpha  occ. eigenvalues --  -10.19978  -1.22672  -1.01744  -0.91462  -0.90752
 Alpha  occ. eigenvalues --   -0.86020  -0.77409  -0.75056  -0.73225  -0.70635
 Alpha  occ. eigenvalues --   -0.69489  -0.67155  -0.62472  -0.61585  -0.58859
 Alpha  occ. eigenvalues --   -0.54218  -0.52996  -0.50300  -0.49428  -0.48754
 Alpha  occ. eigenvalues --   -0.47101  -0.46652  -0.46269  -0.45113  -0.44735
 Alpha  occ. eigenvalues --   -0.44144  -0.43213  -0.41187  -0.40767  -0.40051
 Alpha  occ. eigenvalues --   -0.39915  -0.39654  -0.37998  -0.37540  -0.37208
 Alpha  occ. eigenvalues --   -0.36448  -0.36387  -0.35023  -0.34562  -0.34030
 Alpha  occ. eigenvalues --   -0.25979  -0.24797  -0.23650  -0.22334  -0.20575
 Alpha virt. eigenvalues --   -0.01989  -0.00552   0.03191   0.08048   0.08818
 Alpha virt. eigenvalues --    0.10217   0.11705   0.13200   0.13431   0.13855
 Alpha virt. eigenvalues --    0.13910   0.14571   0.14841   0.15468   0.16018
 Alpha virt. eigenvalues --    0.16541   0.17179   0.17671   0.17795   0.17892
 Alpha virt. eigenvalues --    0.18705   0.19242   0.20748   0.21790   0.23968
 Alpha virt. eigenvalues --    0.24734   0.26718   0.27209   0.27818   0.30312
 Alpha virt. eigenvalues --    0.31125   0.32681   0.34363   0.35034   0.39389
 Alpha virt. eigenvalues --    0.46472   0.48834   0.49183   0.49599   0.50164
 Alpha virt. eigenvalues --    0.50632   0.52551   0.52664   0.54013   0.55040
 Alpha virt. eigenvalues --    0.55646   0.57091   0.57455   0.58729   0.58910
 Alpha virt. eigenvalues --    0.59720   0.60075   0.60884   0.61105   0.63088
 Alpha virt. eigenvalues --    0.63280   0.64336   0.65263   0.66953   0.67894
 Alpha virt. eigenvalues --    0.70655   0.72007   0.73092   0.75701   0.76539
 Alpha virt. eigenvalues --    0.77687   0.78738   0.79054   0.79791   0.80880
 Alpha virt. eigenvalues --    0.81260   0.81725   0.82636   0.83258   0.85022
 Alpha virt. eigenvalues --    0.85216   0.86244   0.87054   0.87330   0.88197
 Alpha virt. eigenvalues --    0.89290   0.90027   0.90910   0.91810   0.92082
 Alpha virt. eigenvalues --    0.93663   0.95073   0.95401   0.95809   0.96618
 Alpha virt. eigenvalues --    1.00080   1.01081   1.03151   1.05376   1.05887
 Alpha virt. eigenvalues --    1.07891   1.08484   1.09339   1.10614   1.13526
 Alpha virt. eigenvalues --    1.18397   1.18877   1.20428   1.21334   1.24014
 Alpha virt. eigenvalues --    1.24693   1.27500   1.29428   1.31064   1.33355
 Alpha virt. eigenvalues --    1.34815   1.35002   1.37045   1.38976   1.39833
 Alpha virt. eigenvalues --    1.39911   1.41390   1.44021   1.44671   1.45076
 Alpha virt. eigenvalues --    1.46235   1.49056   1.51964   1.57207   1.61232
 Alpha virt. eigenvalues --    1.62847   1.65805   1.68440   1.70872   1.71651
 Alpha virt. eigenvalues --    1.73623   1.74142   1.75798   1.77986   1.79412
 Alpha virt. eigenvalues --    1.80372   1.81900   1.83119   1.83817   1.86414
 Alpha virt. eigenvalues --    1.86784   1.88226   1.88673   1.89625   1.90664
 Alpha virt. eigenvalues --    1.91131   1.92093   1.93133   1.93669   1.94279
 Alpha virt. eigenvalues --    1.95134   1.96695   1.97543   1.98519   1.99827
 Alpha virt. eigenvalues --    2.00931   2.02194   2.02993   2.03860   2.04069
 Alpha virt. eigenvalues --    2.05755   2.06252   2.07151   2.07596   2.08616
 Alpha virt. eigenvalues --    2.11134   2.12504   2.13789   2.14904   2.17253
 Alpha virt. eigenvalues --    2.20453   2.23715   2.24694   2.25567   2.26794
 Alpha virt. eigenvalues --    2.27919   2.28745   2.29419   2.30489   2.31638
 Alpha virt. eigenvalues --    2.33568   2.34754   2.36086   2.37314   2.37978
 Alpha virt. eigenvalues --    2.39201   2.39582   2.41492   2.43212   2.45695
 Alpha virt. eigenvalues --    2.46896   2.48624   2.49793   2.51017   2.51626
 Alpha virt. eigenvalues --    2.54443   2.56356   2.57022   2.57846   2.58965
 Alpha virt. eigenvalues --    2.59915   2.61006   2.62356   2.63944   2.65180
 Alpha virt. eigenvalues --    2.66559   2.66847   2.68007   2.70111   2.71650
 Alpha virt. eigenvalues --    2.72261   2.73146   2.77920   2.80465   2.80944
 Alpha virt. eigenvalues --    2.82908   2.83566   2.84574   2.85673   2.88377
 Alpha virt. eigenvalues --    2.90072   2.91493   2.92910   2.98459   3.00187
 Alpha virt. eigenvalues --    3.02794   3.06196   3.09619   3.10635   3.13118
 Alpha virt. eigenvalues --    3.16998   3.18256   3.20079   3.22907   3.24380
 Alpha virt. eigenvalues --    3.28018   3.32656   3.34347   3.35301   3.42336
 Alpha virt. eigenvalues --    3.42980   3.43772   3.44163   3.45188   3.45690
 Alpha virt. eigenvalues --    3.46814   3.49101   3.50499   3.82514   3.99904
 Alpha virt. eigenvalues --    4.04399   4.13949   4.15036   4.16866   4.21540
 Alpha virt. eigenvalues --    4.35913   4.40646   4.42511   4.49035   4.51270
 Alpha virt. eigenvalues --    4.55815   4.59646   4.72215   4.79163   5.59088
          Condensed to atoms (all electrons):
              1          2          3          4          5          6
     1  C    4.837557   0.267218  -0.049061  -0.020495   0.002710  -0.001045
     2  N    0.267218   7.065026   0.277234   0.273842  -0.097473  -0.103077
     3  C   -0.049061   0.277234   4.792253  -0.021519   0.004812   0.005998
     4  C   -0.020495   0.273842  -0.021519   4.382060   0.570800   0.339938
     5  O    0.002710  -0.097473   0.004812   0.570800   8.089834  -0.078373
     6  C   -0.001045  -0.103077   0.005998   0.339938  -0.078373   5.066229
     7  N   -0.000458   0.001299  -0.000183  -0.043286  -0.000928   0.277807
     8  C    0.000002  -0.000082   0.000000  -0.002371  -0.001662  -0.038048
     9  C   -0.000322  -0.000096   0.000006   0.004572  -0.000016  -0.037645
    10  C   -0.001816  -0.000043  -0.000003   0.000006  -0.000002   0.001895
    11  C   -0.002639  -0.000032  -0.000002   0.000052   0.000000  -0.000683
    12  C   -0.000664   0.000003   0.000000  -0.000002   0.000000  -0.000010
    13  C    0.000224   0.000008   0.000000   0.000000   0.000000   0.000004
    14  C    0.001795   0.000045   0.000000  -0.000003   0.000000  -0.000013
    15  C    0.000639   0.000074   0.000000  -0.000056   0.000000   0.001245
    16  F   -0.000800   0.000001   0.000000   0.000011   0.000000  -0.002052
    17  H    0.380927  -0.026179  -0.008337   0.001624  -0.000082   0.000022
    18  H    0.383075  -0.043026   0.004028  -0.004019   0.000013  -0.000483
    19  H    0.389112  -0.044650   0.001945  -0.003328   0.000028  -0.001019
    20  H   -0.006984  -0.033622   0.380516   0.004060   0.000513  -0.000092
    21  H    0.004134  -0.038431   0.385633  -0.002676   0.010426   0.000306
    22  H    0.002084  -0.047166   0.393546  -0.003271   0.001207  -0.000177
    23  H   -0.001232   0.001896  -0.000252  -0.030324   0.003547   0.344978
    24  H    0.000040   0.003990  -0.000160  -0.030917   0.001972   0.347713
    25  H    0.000000   0.000000   0.000000  -0.000138   0.000045  -0.003771
    26  H   -0.000014   0.000115  -0.000004   0.001405   0.007170  -0.006025
    27  H    0.000000   0.000012   0.000000   0.000083   0.000005   0.004756
    28  H   -0.000027   0.000005   0.000000  -0.000004  -0.000005  -0.013085
    29  H   -0.000002   0.000001   0.000000  -0.000178   0.000002   0.005343
    30  H   -0.000012  -0.000001   0.000000   0.000000   0.000000  -0.000021
    31  H   -0.000006   0.000000   0.000000   0.000000   0.000000   0.000000
    32  H   -0.000001   0.000000   0.000000   0.000000   0.000000   0.000000
    33  H   -0.000011   0.000000   0.000000   0.000000   0.000000   0.000001
              7          8          9         10         11         12
     1  C   -0.000458   0.000002  -0.000322  -0.001816  -0.002639  -0.000664
     2  N    0.001299  -0.000082  -0.000096  -0.000043  -0.000032   0.000003
     3  C   -0.000183   0.000000   0.000006  -0.000003  -0.000002   0.000000
     4  C   -0.043286  -0.002371   0.004572   0.000006   0.000052  -0.000002
     5  O   -0.000928  -0.001662  -0.000016  -0.000002   0.000000   0.000000
     6  C    0.277807  -0.038048  -0.037645   0.001895  -0.000683  -0.000010
     7  N    6.911912   0.308808   0.294615  -0.075424   0.005725   0.000067
     8  C    0.308808   4.819968  -0.044654   0.004054   0.000167   0.000010
     9  C    0.294615  -0.044654   4.960182   0.336753  -0.055755   0.005741
    10  C   -0.075424   0.004054   0.336753   5.012775   0.494240  -0.023748
    11  C    0.005725   0.000167  -0.055755   0.494240   4.894504   0.516100
    12  C    0.000067   0.000010   0.005741  -0.023748   0.516100   4.838551
    13  C    0.000014   0.000000  -0.000094  -0.030610  -0.035402   0.535698
    14  C   -0.000105   0.000003   0.007448  -0.066328  -0.043496  -0.030025
    15  C   -0.002440  -0.000068  -0.043130   0.447620  -0.015534  -0.043933
    16  F    0.000038  -0.000001  -0.003741  -0.052583   0.002725  -0.000080
    17  H    0.000037   0.000000   0.000005   0.000153   0.000053  -0.000031
    18  H   -0.000292  -0.000004   0.000031  -0.000788  -0.000087   0.000052
    19  H    0.003666  -0.000006  -0.001080   0.001374   0.004849   0.002231
    20  H    0.000006   0.000000   0.000000   0.000000   0.000000   0.000000
    21  H   -0.000003  -0.000001   0.000000   0.000000   0.000000   0.000000
    22  H   -0.000004   0.000000   0.000000   0.000000   0.000000   0.000000
    23  H   -0.030825   0.004448  -0.006520  -0.003530   0.000166   0.000018
    24  H   -0.041371  -0.006808  -0.004004  -0.000327   0.000033   0.000000
    25  H   -0.049037   0.364215  -0.012975  -0.000418   0.000107   0.000000
    26  H   -0.027127   0.380563   0.004264  -0.000148  -0.000017   0.000000
    27  H   -0.044758   0.391144  -0.000487   0.000312  -0.000128  -0.000003
    28  H   -0.042028  -0.000601   0.356966  -0.044636   0.005938  -0.000143
    29  H   -0.035723  -0.005725   0.369649  -0.034202  -0.007430   0.000044
    30  H    0.002604  -0.000176  -0.008569  -0.041557   0.372806  -0.041017
    31  H    0.000002   0.000000  -0.000156   0.003853  -0.037178   0.367713
    32  H    0.000000   0.000000   0.000005   0.000368   0.004668  -0.039296
    33  H    0.000001   0.000000  -0.000149   0.006087   0.000398   0.004689
             13         14         15         16         17         18
     1  C    0.000224   0.001795   0.000639  -0.000800   0.380927   0.383075
     2  N    0.000008   0.000045   0.000074   0.000001  -0.026179  -0.043026
     3  C    0.000000   0.000000   0.000000   0.000000  -0.008337   0.004028
     4  C    0.000000  -0.000003  -0.000056   0.000011   0.001624  -0.004019
     5  O    0.000000   0.000000   0.000000   0.000000  -0.000082   0.000013
     6  C    0.000004  -0.000013   0.001245  -0.002052   0.000022  -0.000483
     7  N    0.000014  -0.000105  -0.002440   0.000038   0.000037  -0.000292
     8  C    0.000000   0.000003  -0.000068  -0.000001   0.000000  -0.000004
     9  C   -0.000094   0.007448  -0.043130  -0.003741   0.000005   0.000031
    10  C   -0.030610  -0.066328   0.447620  -0.052583   0.000153  -0.000788
    11  C   -0.035402  -0.043496  -0.015534   0.002725   0.000053  -0.000087
    12  C    0.535698  -0.030025  -0.043933  -0.000080  -0.000031   0.000052
    13  C    4.836278   0.494835  -0.015920   0.002801  -0.000067   0.000063
    14  C    0.494835   5.030280   0.468292  -0.044813   0.000083  -0.000442
    15  C   -0.015920   0.468292   4.635740   0.291315   0.000180   0.000041
    16  F    0.002801  -0.044813   0.291315   9.085732  -0.000001   0.002056
    17  H   -0.000067   0.000083   0.000180  -0.000001   0.595113  -0.027325
    18  H    0.000063  -0.000442   0.000041   0.002056  -0.027325   0.606364
    19  H    0.000546  -0.001444  -0.001882  -0.000049  -0.030364  -0.040335
    20  H    0.000000   0.000000   0.000000   0.000000   0.001391  -0.000098
    21  H    0.000000   0.000000   0.000000   0.000000   0.000076  -0.000259
    22  H    0.000000   0.000000   0.000000   0.000000   0.001226   0.000300
    23  H   -0.000020  -0.000018   0.000140   0.007141   0.000194   0.001792
    24  H    0.000000  -0.000001  -0.000079   0.000009   0.000000   0.000202
    25  H    0.000000   0.000000  -0.000024   0.000000   0.000000  -0.000001
    26  H    0.000000   0.000000   0.000003   0.000000   0.000000  -0.000002
    27  H    0.000000   0.000000   0.000011   0.000000   0.000000   0.000000
    28  H   -0.000043   0.000280  -0.008501   0.007783   0.000001  -0.000044
    29  H    0.000029  -0.000277   0.003343   0.000173   0.000000  -0.000005
    30  H    0.004785   0.000141   0.004113  -0.000016   0.000001  -0.000001
    31  H   -0.040560   0.004515   0.000849   0.000001   0.000000   0.000000
    32  H    0.371046  -0.037377   0.003718  -0.000020   0.000000  -0.000002
    33  H   -0.039578   0.356346  -0.033007  -0.000521   0.000005   0.000050
             19         20         21         22         23         24
     1  C    0.389112  -0.006984   0.004134   0.002084  -0.001232   0.000040
     2  N   -0.044650  -0.033622  -0.038431  -0.047166   0.001896   0.003990
     3  C    0.001945   0.380516   0.385633   0.393546  -0.000252  -0.000160
     4  C   -0.003328   0.004060  -0.002676  -0.003271  -0.030324  -0.030917
     5  O    0.000028   0.000513   0.010426   0.001207   0.003547   0.001972
     6  C   -0.001019  -0.000092   0.000306  -0.000177   0.344978   0.347713
     7  N    0.003666   0.000006  -0.000003  -0.000004  -0.030825  -0.041371
     8  C   -0.000006   0.000000  -0.000001   0.000000   0.004448  -0.006808
     9  C   -0.001080   0.000000   0.000000   0.000000  -0.006520  -0.004004
    10  C    0.001374   0.000000   0.000000   0.000000  -0.003530  -0.000327
    11  C    0.004849   0.000000   0.000000   0.000000   0.000166   0.000033
    12  C    0.002231   0.000000   0.000000   0.000000   0.000018   0.000000
    13  C    0.000546   0.000000   0.000000   0.000000  -0.000020   0.000000
    14  C   -0.001444   0.000000   0.000000   0.000000  -0.000018  -0.000001
    15  C   -0.001882   0.000000   0.000000   0.000000   0.000140  -0.000079
    16  F   -0.000049   0.000000   0.000000   0.000000   0.007141   0.000009
    17  H   -0.030364   0.001391   0.000076   0.001226   0.000194   0.000000
    18  H   -0.040335  -0.000098  -0.000259   0.000300   0.001792   0.000202
    19  H    0.570741   0.001253   0.000012  -0.000340  -0.000184   0.000052
    20  H    0.001253   0.613690  -0.025672  -0.039433  -0.000015   0.000002
    21  H    0.000012  -0.025672   0.559429  -0.034959  -0.000015  -0.000015
    22  H   -0.000340  -0.039433  -0.034959   0.604723  -0.000003   0.000014
    23  H   -0.000184  -0.000015  -0.000015  -0.000003   0.631524  -0.032000
    24  H    0.000052   0.000002  -0.000015   0.000014  -0.032000   0.637997
    25  H    0.000006   0.000000   0.000000   0.000000  -0.000021   0.006654
    26  H    0.000008   0.000000   0.000004   0.000000   0.000219   0.001528
    27  H   -0.000008   0.000000   0.000000   0.000000  -0.000204  -0.000373
    28  H    0.000125   0.000000   0.000000   0.000000   0.000528   0.006966
    29  H    0.000030   0.000000   0.000000   0.000000   0.000604  -0.000190
    30  H    0.000100   0.000000   0.000000   0.000000  -0.000020   0.000005
    31  H    0.000025   0.000000   0.000000   0.000000   0.000000   0.000000
    32  H    0.000005   0.000000   0.000000   0.000000   0.000000   0.000000
    33  H    0.000006   0.000000   0.000000   0.000000  -0.000006   0.000000
             25         26         27         28         29         30
     1  C    0.000000  -0.000014   0.000000  -0.000027  -0.000002  -0.000012
     2  N    0.000000   0.000115   0.000012   0.000005   0.000001  -0.000001
     3  C    0.000000  -0.000004   0.000000   0.000000   0.000000   0.000000
     4  C   -0.000138   0.001405   0.000083  -0.000004  -0.000178   0.000000
     5  O    0.000045   0.007170   0.000005  -0.000005   0.000002   0.000000
     6  C   -0.003771  -0.006025   0.004756  -0.013085   0.005343  -0.000021
     7  N   -0.049037  -0.027127  -0.044758  -0.042028  -0.035723   0.002604
     8  C    0.364215   0.380563   0.391144  -0.000601  -0.005725  -0.000176
     9  C   -0.012975   0.004264  -0.000487   0.356966   0.369649  -0.008569
    10  C   -0.000418  -0.000148   0.000312  -0.044636  -0.034202  -0.041557
    11  C    0.000107  -0.000017  -0.000128   0.005938  -0.007430   0.372806
    12  C    0.000000   0.000000  -0.000003  -0.000143   0.000044  -0.041017
    13  C    0.000000   0.000000   0.000000  -0.000043   0.000029   0.004785
    14  C    0.000000   0.000000   0.000000   0.000280  -0.000277   0.000141
    15  C   -0.000024   0.000003   0.000011  -0.008501   0.003343   0.004113
    16  F    0.000000   0.000000   0.000000   0.007783   0.000173  -0.000016
    17  H    0.000000   0.000000   0.000000   0.000001   0.000000   0.000001
    18  H   -0.000001  -0.000002   0.000000  -0.000044  -0.000005  -0.000001
    19  H    0.000006   0.000008  -0.000008   0.000125   0.000030   0.000100
    20  H    0.000000   0.000000   0.000000   0.000000   0.000000   0.000000
    21  H    0.000000   0.000004   0.000000   0.000000   0.000000   0.000000
    22  H    0.000000   0.000000   0.000000   0.000000   0.000000   0.000000
    23  H   -0.000021   0.000219  -0.000204   0.000528   0.000604  -0.000020
    24  H    0.006654   0.001528  -0.000373   0.006966  -0.000190   0.000005
    25  H    0.678497  -0.028473  -0.051068   0.007161   0.001421   0.000038
    26  H   -0.028473   0.555977  -0.027000  -0.000265   0.000401   0.000009
    27  H   -0.051068  -0.027000   0.615623  -0.000594   0.002092   0.000361
    28  H    0.007161  -0.000265  -0.000594   0.657794  -0.035075   0.000192
    29  H    0.001421   0.000401   0.002092  -0.035075   0.624075   0.002936
    30  H    0.000038   0.000009   0.000361   0.000192   0.002936   0.610048
    31  H    0.000000   0.000000   0.000000   0.000002  -0.000004  -0.005369
    32  H    0.000000   0.000000   0.000000   0.000000   0.000000  -0.000188
    33  H    0.000000   0.000000   0.000000   0.000004   0.000003   0.000013
             31         32         33
     1  C   -0.000006  -0.000001  -0.000011
     2  N    0.000000   0.000000   0.000000
     3  C    0.000000   0.000000   0.000000
     4  C    0.000000   0.000000   0.000000
     5  O    0.000000   0.000000   0.000000
     6  C    0.000000   0.000000   0.000001
     7  N    0.000002   0.000000   0.000001
     8  C    0.000000   0.000000   0.000000
     9  C   -0.000156   0.000005  -0.000149
    10  C    0.003853   0.000368   0.006087
    11  C   -0.037178   0.004668   0.000398
    12  C    0.367713  -0.039296   0.004689
    13  C   -0.040560   0.371046  -0.039578
    14  C    0.004515  -0.037377   0.356346
    15  C    0.000849   0.003718  -0.033007
    16  F    0.000001  -0.000020  -0.000521
    17  H    0.000000   0.000000   0.000005
    18  H    0.000000  -0.000002   0.000050
    19  H    0.000025   0.000005   0.000006
    20  H    0.000000   0.000000   0.000000
    21  H    0.000000   0.000000   0.000000
    22  H    0.000000   0.000000   0.000000
    23  H    0.000000   0.000000  -0.000006
    24  H    0.000000   0.000000   0.000000
    25  H    0.000000   0.000000   0.000000
    26  H    0.000000   0.000000   0.000000
    27  H    0.000000   0.000000   0.000000
    28  H    0.000002   0.000000   0.000004
    29  H   -0.000004   0.000000   0.000003
    30  H   -0.005369  -0.000188   0.000013
    31  H    0.620991  -0.005550  -0.000169
    32  H   -0.005550   0.613460  -0.006510
    33  H   -0.000169  -0.006510   0.612082
 Mulliken atomic charges:
              1
     1  C   -0.183929
     2  N   -0.456890
     3  C   -0.166449
     4  C    0.584134
     5  O   -0.514542
     6  C   -0.110614
     7  N   -0.412612
     8  C   -0.173174
     9  C   -0.120846
    10  C    0.066672
    11  C   -0.104149
    12  C   -0.091965
    13  C   -0.084034
    14  C   -0.139723
    15  C    0.307251
    16  F   -0.295111
    17  H    0.111290
    18  H    0.119143
    19  H    0.148575
    20  H    0.104486
    21  H    0.142009
    22  H    0.122251
    23  H    0.107995
    24  H    0.109068
    25  H    0.087781
    26  H    0.137407
    27  H    0.110224
    28  H    0.101305
    29  H    0.108667
    30  H    0.098796
    31  H    0.091042
    32  H    0.095674
    33  H    0.100267
 Sum of Mulliken atomic charges =   0.00000
 Mulliken charges with hydrogens summed into heavy atoms:
              1
     1  C    0.195079
     2  N   -0.456890
     3  C    0.202298
     4  C    0.584134
     5  O   -0.514542
     6  C    0.106449
     7  N   -0.412612
     8  C    0.162239
     9  C    0.089126
    10  C    0.066672
    11  C   -0.005353
    12  C   -0.000923
    13  C    0.011640
    14  C   -0.039457
    15  C    0.307251
    16  F   -0.295111
 Sum of Mulliken charges with hydrogens summed into heavy atoms =   0.00000
 Electronic spatial extent (au):  <R**2>=           3844.8999
 Charge=              0.0000 electrons
 Dipole moment (field-independent basis, Debye):
    X=              3.4908    Y=             -1.2778    Z=             -0.6918  Tot=              3.7811
 Quadrupole moment (field-independent basis, Debye-Ang):
   XX=           -107.7797   YY=            -83.7872   ZZ=            -92.2867
   XY=             -0.2944   XZ=             -2.5497   YZ=             -0.4652
 Traceless Quadrupole moment (field-independent basis, Debye-Ang):
   XX=            -13.1619   YY=             10.8307   ZZ=              2.3312
   XY=             -0.2944   XZ=             -2.5497   YZ=             -0.4652
 Octapole moment (field-independent basis, Debye-Ang**2):
  XXX=             66.0020  YYY=             -4.5669  ZZZ=              3.4325  XYY=            -10.2215
  XXY=            -28.6401  XXZ=             -0.8228  XZZ=             -1.4162  YZZ=             -0.0201
  YYZ=              0.4935  XYZ=             -2.2586
 Hexadecapole moment (field-independent basis, Debye-Ang**3):
 XXXX=          -3230.1443 YYYY=          -1370.7247 ZZZZ=           -614.9306 XXXY=            -25.5635
 XXXZ=             36.1179 YYYX=             16.2928 YYYZ=              2.8282 ZZZX=              3.1343
 ZZZY=             -2.2863 XXYY=           -664.6276 XXZZ=           -567.9609 YYZZ=           -333.1703
 XXYZ=             10.9628 YYXZ=             20.3859 ZZXY=             -8.4281
 N-N= 1.142488332378D+03 E-N=-4.037303550753D+03  KE= 7.448624746156D+02
 1\1\GINC-C04\SP\RB3LYP\6-31G(d,p)\C12H17F1N2O1\TUU61186\08-Jun-2026\0\
 \# b3lyp/6-31g(d,p)\\Generated by mdgx\\0,1\C,0,12.0393105,16.1306735,
 15.7789312\N,0,12.1130783,17.5700245,15.4578822\C,0,10.8409258,18.1810
 542,15.0215811\C,0,13.2873306,18.3330774,15.5166225\O,0,13.3050812,19.
 5132025,15.2097907\C,0,14.5820889,17.6497795,15.9960043\N,0,15.3285615
 ,17.0468594,14.8690221\C,0,16.2622601,17.9065108,14.1177947\C,0,15.994
 0422,15.7972356,15.3148762\C,0,15.0957067,14.5744265,15.1787733\C,0,14
 .7697799,14.0942538,13.8968674\C,0,13.9373948,12.9736864,13.7455317\C,
 0,13.4253111,12.3194769,14.8759238\C,0,13.7487803,12.7846269,16.159387
 1\C,0,14.5825244,13.9054051,16.3106453\F,0,14.877809,14.3400243,17.555
 1017\H,0,10.9971466,15.7876695,15.7734552\H,0,12.4534868,15.9438401,16
 .7766749\H,0,12.5983115,15.5617051,15.0277596\H,0,10.1505423,17.412478
 8,14.6518791\H,0,11.0275952,18.8963355,14.2107154\H,0,10.3793536,18.70
 58165,15.8672226\H,0,14.3235951,16.8978534,16.7495521\H,0,15.2048926,1
 8.4012692,16.4982773\H,0,17.2574082,17.901118,14.5809724\H,0,15.885020
 6,18.9354061,14.0626371\H,0,16.3726858,17.5241179,13.0953798\H,0,16.36
 50432,15.9031017,16.3419825\H,0,16.8732577,15.6041783,14.6866776\H,0,1
 5.1570417,14.5953809,13.013967\H,0,13.6884624,12.6138331,12.7515207\H,
 0,12.7803695,11.4536243,14.7572124\H,0,13.3517019,12.2764542,17.033279
 3\\Version=EM64L-G09RevC.01\State=1-A\HF=-752.0767446\RMSD=6.070e-09\D
 ipole=-0.2128463,-1.4624966,-0.1697167\Quadrupole=6.8367572,-8.6265309
 ,1.7897737,4.1663596,-1.5619246,1.8927091\PG=C01 [X(C12H17F1N2O1)]\\@


 NATURE WILL TELL YOU A DIRECT LIE IF SHE CAN.

                                -- CHARLES DARWIN
 Job cpu time:  0 days  0 hours  3 minutes  4.2 seconds.
 File lengths (MBytes):  RWF=     47 Int=      0 D2E=      0 Chk=      5 Scr=      1
 Normal termination of Gaussian 09 at Mon Jun  8 05:50:17 2026.
