 Entering Gaussian System, Link 0=/data/opt/apps/g09-C01/g09
 Initial command:
 /data/opt/apps/g09-C01/l1.exe /tmp/g09-tuu61186-120608e956b4d176x/Gau-120744.inp -scrdir=/tmp/g09-tuu61186-120608e956b4d176x/
 Entering Link 1 = /data/opt/apps/g09-C01/l1.exe PID=    120754.
  
 Copyright (c) 1988,1990,1992,1993,1995,1998,2003,2009,2011,
            Gaussian, Inc.  All Rights Reserved.
  
 This is part of the Gaussian(R) 09 program.  It is based on
 the Gaussian(R) 03 system (copyright 2003, Gaussian, Inc.),
 the Gaussian(R) 98 system (copyright 1998, Gaussian, Inc.),
 the Gaussian(R) 94 system (copyright 1995, Gaussian, Inc.),
 the Gaussian 92(TM) system (copyright 1992, Gaussian, Inc.),
 the Gaussian 90(TM) system (copyright 1990, Gaussian, Inc.),
 the Gaussian 88(TM) system (copyright 1988, Gaussian, Inc.),
 the Gaussian 86(TM) system (copyright 1986, Carnegie Mellon
 University), and the Gaussian 82(TM) system (copyright 1983,
 Carnegie Mellon University). Gaussian is a federally registered
 trademark of Gaussian, Inc.
  
 This software contains proprietary and confidential information,
 including trade secrets, belonging to Gaussian, Inc.
  
 This software is provided under written license and may be
 used, copied, transmitted, or stored only in accord with that
 written license.
  
 The following legend is applicable only to US Government
 contracts under FAR:
  
                    RESTRICTED RIGHTS LEGEND
  
 Use, reproduction and disclosure by the US Government is
 subject to restrictions as set forth in subparagraphs (a)
 and (c) of the Commercial Computer Software - Restricted
 Rights clause in FAR 52.227-19.
  
 Gaussian, Inc.
 340 Quinnipiac St., Bldg. 40, Wallingford CT 06492
  
  
 ---------------------------------------------------------------
 Warning -- This program may not be used in any manner that
 competes with the business of Gaussian, Inc. or will provide
 assistance to any competitor of Gaussian, Inc.  The licensee
 of this program is prohibited from giving any competitor of
 Gaussian, Inc. access to this program.  By using this program,
 the user acknowledges that Gaussian, Inc. is engaged in the
 business of creating and licensing software in the field of
 computational chemistry and represents and warrants to the
 licensee that it is not a competitor of Gaussian, Inc. and that
 it will not use this program in any manner prohibited above.
 ---------------------------------------------------------------
  

 Cite this work as:
 Gaussian 09, Revision C.01,
 M. J. Frisch, G. W. Trucks, H. B. Schlegel, G. E. Scuseria, 
 M. A. Robb, J. R. Cheeseman, G. Scalmani, V. Barone, B. Mennucci, 
 G. A. Petersson, H. Nakatsuji, M. Caricato, X. Li, H. P. Hratchian, 
 A. F. Izmaylov, J. Bloino, G. Zheng, J. L. Sonnenberg, M. Hada, 
 M. Ehara, K. Toyota, R. Fukuda, J. Hasegawa, M. Ishida, T. Nakajima, 
 Y. Honda, O. Kitao, H. Nakai, T. Vreven, J. A. Montgomery, Jr., 
 J. E. Peralta, F. Ogliaro, M. Bearpark, J. J. Heyd, E. Brothers, 
 K. N. Kudin, V. N. Staroverov, T. Keith, R. Kobayashi, J. Normand, 
 K. Raghavachari, A. Rendell, J. C. Burant, S. S. Iyengar, J. Tomasi, 
 M. Cossi, N. Rega, J. M. Millam, M. Klene, J. E. Knox, J. B. Cross, 
 V. Bakken, C. Adamo, J. Jaramillo, R. Gomperts, R. E. Stratmann, 
 O. Yazyev, A. J. Austin, R. Cammi, C. Pomelli, J. W. Ochterski, 
 R. L. Martin, K. Morokuma, V. G. Zakrzewski, G. A. Voth, 
 P. Salvador, J. J. Dannenberg, S. Dapprich, A. D. Daniels, 
 O. Farkas, J. B. Foresman, J. V. Ortiz, J. Cioslowski, 
 and D. J. Fox, Gaussian, Inc., Wallingford CT, 2010.
 
 ******************************************
 Gaussian 09:  EM64L-G09RevC.01 23-Sep-2011
                 8-Jun-2026 
 ******************************************
 %nprocshared=8
 Will use up to    8 processors via shared memory.
 %mem=14GB
 ------------------
 # b3lyp/6-31g(d,p)
 ------------------
 1/38=1/1;
 2/12=2,17=6,18=5,40=1/2;
 3/5=1,6=6,7=101,11=2,16=1,25=1,30=1,74=-5/1,2,3;
 4//1;
 5/5=2,38=5/2;
 6/7=2,8=2,9=2,10=2,28=1/1;
 99/5=1,9=1/99;
 -----------------
 Generated by mdgx
 -----------------
 Charge =  0 Multiplicity = 1
 Symbolic Z-Matrix:
 C                     12.25983   18.85464   15.29594 
 N                     12.63515   17.59109   15.96109 
 C                     13.08216   17.73261   17.35904 
 C                     12.44999   16.3242   15.3976 
 O                     12.41793   15.31726   16.08289 
 C                     12.37073   16.22531   13.85987 
 N                     13.69621   16.02487   13.22125 
 C                     14.29743   17.34839   12.94472 
 C                     14.59216   14.84687   13.26905 
 C                     14.94041   14.35729   14.67457 
 C                     14.44574   13.11204   15.10898 
 C                     14.75044   12.62859   16.39146 
 C                     15.56261   13.38071   17.2521 
 C                     16.0815   14.61116   16.82388 
 C                     15.78046   15.09284   15.53885 
 F                     16.32056   16.26256   15.13949 
 H                     12.0905   19.63937   16.04426 
 H                     11.33219   18.71926   14.72669 
 H                     13.06442   19.17559   14.62465 
 H                     13.56     18.70947   17.50653 
 H                     13.80968   16.94659   17.59851 
 H                     12.2188   17.64454   18.03024 
 H                     11.84906   17.09325   13.44122 
 H                     11.74101   15.35488   13.63632 
 H                     14.87559   17.70044   13.80607 
 H                     13.53755   18.09555   12.684 
 H                     14.98587   17.27009   12.0941 
 H                     15.52285   15.06532   12.7311 
 H                     14.10736   14.02315   12.73112 
 H                     13.8074   12.52161   14.45787 
 H                     14.35337   11.6721   16.71857 
 H                     15.79585   13.00691   18.24486 
 H                     16.72109   15.18593   17.48702 
 
                          Input orientation:                          
 ---------------------------------------------------------------------
 Center     Atomic      Atomic             Coordinates (Angstroms)
 Number     Number       Type             X           Y           Z
 ---------------------------------------------------------------------
      1          6           0       12.259833   18.854641   15.295936
      2          7           0       12.635155   17.591093   15.961091
      3          6           0       13.082164   17.732615   17.359038
      4          6           0       12.449993   16.324196   15.397602
      5          8           0       12.417929   15.317263   16.082888
      6          6           0       12.370725   16.225308   13.859868
      7          7           0       13.696214   16.024873   13.221254
      8          6           0       14.297427   17.348388   12.944723
      9          6           0       14.592160   14.846870   13.269046
     10          6           0       14.940411   14.357290   14.674573
     11          6           0       14.445741   13.112042   15.108975
     12          6           0       14.750439   12.628589   16.391457
     13          6           0       15.562612   13.380711   17.252098
     14          6           0       16.081496   14.611164   16.823877
     15          6           0       15.780462   15.092837   15.538849
     16          9           0       16.320557   16.262563   15.139487
     17          1           0       12.090500   19.639372   16.044262
     18          1           0       11.332188   18.719258   14.726687
     19          1           0       13.064420   19.175594   14.624652
     20          1           0       13.559996   18.709471   17.506534
     21          1           0       13.809685   16.946592   17.598513
     22          1           0       12.218797   17.644541   18.030242
     23          1           0       11.849056   17.093246   13.441220
     24          1           0       11.741012   15.354881   13.636320
     25          1           0       14.875592   17.700436   13.806066
     26          1           0       13.537547   18.095551   12.683995
     27          1           0       14.985868   17.270089   12.094097
     28          1           0       15.522847   15.065320   12.731102
     29          1           0       14.107363   14.023154   12.731123
     30          1           0       13.807402   12.521608   14.457872
     31          1           0       14.353369   11.672105   16.718575
     32          1           0       15.795854   13.006910   18.244858
     33          1           0       16.721088   15.185930   17.487021
 ---------------------------------------------------------------------
                    Distance matrix (angstroms):
                    1          2          3          4          5
     1  C    0.000000
     2  N    1.476431   0.000000
     3  C    2.488284   1.474483   0.000000
     4  C    2.539615   1.398868   2.496099   0.000000
     5  O    3.627303   2.287427   2.811350   1.218424   0.000000
     6  C    2.997995   2.520005   3.875862   1.542948   2.401789
     7  N    3.791449   3.329504   4.518262   2.525699   3.213047
     8  C    3.456702   3.452612   4.594635   3.237066   4.184025
     9  C    5.060657   4.313668   5.228350   3.361863   3.586956
    10  C    5.272358   4.174544   4.695983   3.254793   3.044309
    11  C    6.147405   4.905734   5.317125   3.792658   3.150164
    12  C    6.794630   5.411662   5.456229   4.465122   3.572785
    13  C    6.685718   5.288102   5.010302   4.668153   3.873799
    14  C    5.911582   4.636986   4.361862   4.261050   3.803862
    15  C    5.158004   4.038878   4.190743   3.553621   3.413646
    16  F    4.820044   4.002776   4.192213   3.879650   4.124816
    17  H    1.097483   2.121088   2.519475   3.396733   4.334666
    18  H    1.096768   2.119960   3.311367   2.726892   3.819906
    19  H    1.095899   2.116833   3.091823   3.017523   4.175059
    20  H    2.568704   2.120022   1.097418   3.371829   3.852033
    21  H    3.368167   2.115669   1.097482   2.660854   2.624656
    22  H    2.990393   2.111302   1.097121   2.954243   3.041063
    23  H    2.590602   2.686177   4.156758   2.186320   3.233595
    24  H    3.907917   3.347341   4.616376   2.131746   2.538764
    25  H    3.223988   3.110570   3.980079   3.211005   4.111391
    26  H    3.005163   3.436298   4.711169   3.418206   4.530441
    27  H    4.493756   4.536798   5.617617   4.270658   5.130136
    28  H    5.620016   5.015089   5.872749   4.258805   4.575856
    29  H    5.773638   5.032919   6.019030   3.892529   3.970294
    30  H    6.573023   5.416042   6.008105   4.145519   3.519517
    31  H    7.615485   6.209707   6.225427   5.197092   4.175788
    32  H    7.442818   6.018334   5.520967   5.505092   4.628415
    33  H    6.177628   4.980776   4.443395   4.889128   4.528357
                    6          7          8          9         10
     6  C    0.000000
     7  N    1.484898   0.000000
     8  C    2.410597   1.479736   0.000000
     9  C    2.680286   1.480775   2.539615   0.000000
    10  C    3.279714   2.537912   3.514610   1.528553   0.000000
    11  C    3.944413   3.551038   4.759477   2.533063   1.408562
    12  C    5.000837   4.764066   5.861885   3.833441   2.443805
    13  C    5.457756   5.169404   5.991381   4.353861   2.825681
    14  C    5.016037   4.546101   5.071798   3.861412   2.446637
    15  C    3.965826   3.253311   3.743848   2.573823   1.411980
    16  F    4.152106   3.259339   3.176329   2.913776   2.398127
    17  H    4.062750   4.859249   4.441427   6.076858   6.156171
    18  H    2.837202   3.887757   3.721199   5.267591   5.661162
    19  H    3.125747   3.506527   2.771488   4.786387   5.170870
    20  H    4.569857   5.058581   4.817309   5.825920   5.372804
    21  H    4.070420   4.474689   4.696498   4.874975   4.066012
    22  H    4.407870   5.285116   5.501901   6.010724   5.428970
    23  H    1.095774   2.145180   2.511200   3.549714   4.308491
    24  H    1.097341   2.108076   3.314760   2.919248   3.508463
    25  H    2.907448   2.130833   1.095502   2.917458   3.454727
    26  H    2.498391   2.145118   1.097109   3.465317   4.461506
    27  H    3.323927   2.117606   1.097108   2.721672   3.891699
    28  H    3.543382   2.120750   2.599941   1.096942   2.148864
    29  H    3.023154   2.101464   3.337504   1.096767   2.140705
    30  H    4.017343   3.716780   5.082082   2.726903   2.168040
    31  H    5.730161   5.622250   6.816545   4.694189   3.425314
    32  H    6.427887   6.225206   7.013213   5.439948   3.911807
    33  H    5.758663   5.296268   5.584159   4.736941   3.430352
                   11         12         13         14         15
    11  C    0.000000
    12  C    1.404039   0.000000
    13  C    2.431575   1.402147   0.000000
    14  C    2.804274   2.426789   1.402366   0.000000
    15  C    2.426896   2.803642   2.431884   1.404965   0.000000
    16  F    3.666286   4.151923   3.652763   2.370957   1.348870
    17  H    7.001997   7.506458   7.258462   6.466739   5.877265
    18  H    6.425047   7.179983   7.264591   6.620466   5.796351
    19  H    6.237731   6.987670   6.835577   5.896894   4.988141
    20  H    6.153377   6.295846   5.698323   4.860051   4.677852
    21  H    4.615858   4.581174   3.988517   3.348941   3.400381
    22  H    5.834092   5.852744   5.474199   5.057384   5.040208
    23  H    5.037278   6.087289   6.488159   5.959584   4.884428
    24  H    3.809803   4.907148   5.619237   5.436307   4.472744
    25  H    4.789124   5.694167   5.568407   4.483859   3.258972
    26  H    5.616112   6.715955   6.870093   5.979235   4.711385
    27  H    5.164357   6.329790   6.485743   5.535440   4.151881
    28  H    3.260327   4.464579   4.824820   4.155617   2.819674
    29  H    2.568815   3.969434   4.792672   4.581877   3.439013
    30  H    1.086289   2.153953   3.409768   3.890466   3.416533
    31  H    2.161657   1.086063   2.160150   3.411097   3.889699
    32  H    3.415789   2.161276   1.086140   2.162038   3.416696
    33  H    3.890157   3.409356   2.157794   1.085907   2.165368
                   16         17         18         19         20
    16  F    0.000000
    17  H    5.487699   0.000000
    18  H    5.575803   1.776979   0.000000
    19  H    4.399231   1.782948   1.794236   0.000000
    20  H    4.383032   2.272086   3.562411   2.961100   0.000000
    21  H    3.580389   3.552796   4.186613   3.790478   1.782848
    22  H    5.204879   2.817788   3.585327   3.828479   1.790855
    23  H    4.854736   3.649230   2.136233   2.685850   4.697475
    24  H    4.904654   4.927189   3.560206   4.162458   5.435120
    25  H    2.435860   4.065185   3.800165   2.475180   4.054924
    26  H    4.139376   3.970984   3.070050   2.270790   4.861510
    27  H    3.474320   5.440631   4.730751   3.704945   5.779222
    28  H    2.805361   6.609084   5.907220   5.150121   6.319602
    29  H    3.964013   6.825433   5.808378   5.587559   6.713101
    30  H    4.557992   7.491793   6.679058   6.697415   6.902550
    31  H    5.237906   8.309791   7.921965   7.896091   7.125647
    32  H    4.529671   7.909603   8.058087   7.656324   6.169553
    33  H    2.613519   6.584607   7.010285   6.122238   4.733733
                   21         22         23         24         25
    21  H    0.000000
    22  H    1.790097   0.000000
    23  H    4.598767   4.636783   0.000000
    24  H    4.744673   4.977687   1.752613   0.000000
    25  H    4.010872   4.990526   3.108329   3.918677   0.000000
    26  H    5.054370   5.524931   2.104520   3.412584   1.790397
    27  H    5.637965   6.560085   3.418421   4.071310   1.768671
    28  H    5.492340   6.756479   4.255995   3.899428   2.918617
    29  H    5.685648   6.690425   3.876809   2.862253   3.907439
    30  H    5.426243   6.444373   5.076276   3.601715   5.327865
    31  H    5.374951   6.476640   6.811859   5.466950   6.715371
    32  H    4.459117   5.860804   7.439778   6.572163   6.525254
    33  H    3.404208   5.158535   6.613853   6.297428   4.824731
                   26         27         28         29         30
    26  H    0.000000
    27  H    1.768334   0.000000
    28  H    3.622974   2.356932   0.000000
    29  H    4.112339   3.423472   1.757756   0.000000
    30  H    5.855622   5.433625   3.520647   2.307874   0.000000
    31  H    7.629159   7.288572   5.364842   4.635486   2.475987
    32  H    7.868762   7.527458   5.891781   5.855342   4.304732
    33  H    6.455222   6.036417   4.906026   5.549971   4.976336
                   31         32         33
    31  H    0.000000
    32  H    2.488374   0.000000
    33  H    4.306225   2.485660   0.000000
 Stoichiometry    C12H17FN2O
 Framework group  C1[X(C12H17FN2O)]
 Deg. of freedom    93
 Full point group                 C1      NOp   1
 Largest Abelian subgroup         C1      NOp   1
 Largest concise Abelian subgroup C1      NOp   1
                         Standard orientation:                         
 ---------------------------------------------------------------------
 Center     Atomic      Atomic             Coordinates (Angstroms)
 Number     Number       Type             X           Y           Z
 ---------------------------------------------------------------------
      1          6           0       -3.500386   -0.798028    0.223490
      2          7           0       -2.122000   -1.206288   -0.112996
      3          6           0       -1.706166   -2.508453    0.439770
      4          6           0       -1.297092   -0.516482   -1.007716
      5          8           0       -0.340500   -1.051972   -1.539449
      6          6           0       -1.583561    0.981453   -1.241844
      7          7           0       -0.854583    1.866942   -0.298752
      8          6           0       -1.684574    2.061936    0.910674
      9          6           0        0.597313    2.141141   -0.201245
     10          6           0        1.481744    0.900521   -0.078280
     11          6           0        2.337049    0.559907   -1.144339
     12          6           0        3.167371   -0.569393   -1.063266
     13          6           0        3.159765   -1.366717    0.090091
     14          6           0        2.330718   -1.025792    1.168553
     15          6           0        1.503254    0.106885    1.089353
     16          9           0        0.741468    0.431782    2.154048
     17          1           0       -4.076586   -1.664911    0.571308
     18          1           0       -3.999240   -0.389717   -0.663824
     19          1           0       -3.482088   -0.044790    1.019287
     20          1           0       -2.226239   -2.701092    1.386734
     21          1           0       -0.624937   -2.504716    0.627911
     22          1           0       -1.947054   -3.303982   -0.276318
     23          1           0       -2.661518    1.177694   -1.227041
     24          1           0       -1.247303    1.206608   -2.261840
     25          1           0       -1.486445    1.277146    1.648898
     26          1           0       -2.755421    2.078480    0.672636
     27          1           0       -1.437184    3.024000    1.376373
     28          1           0        0.794737    2.800914    0.652573
     29          1           0        0.904982    2.692013   -1.098339
     30          1           0        2.347814    1.161794   -2.048574
     31          1           0        3.813919   -0.827682   -1.896810
     32          1           0        3.800769   -2.241426    0.150911
     33          1           0        2.336054   -1.637042    2.066071
 ---------------------------------------------------------------------
 Rotational constants (GHZ):      0.7445847      0.4365823      0.3843267
 Standard basis: 6-31G(d,p) (6D, 7F)
 There are   325 symmetry adapted basis functions of A   symmetry.
 Integral buffers will be    131072 words long.
 Raffenetti 2 integral format.
 Two-electron integral symmetry is turned on.
   325 basis functions,   567 primitive gaussians,   325 cartesian basis functions
    60 alpha electrons       60 beta electrons
       nuclear repulsion energy      1176.5480760947 Hartrees.
 NAtoms=   33 NActive=   33 NUniq=   33 SFac= 1.00D+00 NAtFMM=   60 NAOKFM=F Big=F
 One-electron integrals computed using PRISM.
 NBasis=   325 RedAO= T  NBF=   325
 NBsUse=   325 1.00D-06 NBFU=   325
 Harris functional with IExCor=  402 diagonalized for initial guess.
 ExpMin= 1.61D-01 ExpMax= 7.00D+03 ExpMxC= 1.05D+03 IAcc=1 IRadAn=         1 AccDes= 0.00D+00
 HarFok:  IExCor=  402 AccDes= 0.00D+00 IRadAn=         1 IDoV= 1
 ScaDFX=  1.000000  1.000000  1.000000  1.000000
 FoFCou: FMM=F IPFlag=           0 FMFlag=      100000 FMFlg1=           0
         NFxFlg=           0 DoJE=T BraDBF=F KetDBF=T FulRan=T
         Omega=  0.000000  0.000000  1.000000  0.000000  0.000000 ICntrl=     500 IOpCl=  0
         NMat0=    1 NMatS0=    1 NMatT0=    0 NMatD0=    1 NMtDS0=    0 NMtDT0=    0
         I1Cent=           4 NGrid=           0.
 Petite list used in FoFCou.
 Initial guess orbital symmetries:
       Occupied  (A) (A) (A) (A) (A) (A) (A) (A) (A) (A) (A) (A)
                 (A) (A) (A) (A) (A) (A) (A) (A) (A) (A) (A) (A)
                 (A) (A) (A) (A) (A) (A) (A) (A) (A) (A) (A) (A)
                 (A) (A) (A) (A) (A) (A) (A) (A) (A) (A) (A) (A)
                 (A) (A) (A) (A) (A) (A) (A) (A) (A) (A) (A) (A)
       Virtual   (A) (A) (A) (A) (A) (A) (A) (A) (A) (A) (A) (A)
                 (A) (A) (A) (A) (A) (A) (A) (A) (A) (A) (A) (A)
                 (A) (A) (A) (A) (A) (A) (A) (A) (A) (A) (A) (A)
                 (A) (A) (A) (A) (A) (A) (A) (A) (A) (A) (A) (A)
                 (A) (A) (A) (A) (A) (A) (A) (A) (A) (A) (A) (A)
                 (A) (A) (A) (A) (A) (A) (A) (A) (A) (A) (A) (A)
                 (A) (A) (A) (A) (A) (A) (A) (A) (A) (A) (A) (A)
                 (A) (A) (A) (A) (A) (A) (A) (A) (A) (A) (A) (A)
                 (A) (A) (A) (A) (A) (A) (A) (A) (A) (A) (A) (A)
                 (A) (A) (A) (A) (A) (A) (A) (A) (A) (A) (A) (A)
                 (A) (A) (A) (A) (A) (A) (A) (A) (A) (A) (A) (A)
                 (A) (A) (A) (A) (A) (A) (A) (A) (A) (A) (A) (A)
                 (A) (A) (A) (A) (A) (A) (A) (A) (A) (A) (A) (A)
                 (A) (A) (A) (A) (A) (A) (A) (A) (A) (A) (A) (A)
                 (A) (A) (A) (A) (A) (A) (A) (A) (A) (A) (A) (A)
                 (A) (A) (A) (A) (A) (A) (A) (A) (A) (A) (A) (A)
                 (A) (A) (A) (A) (A) (A) (A) (A) (A) (A) (A) (A)
                 (A) (A) (A) (A) (A) (A) (A) (A) (A) (A) (A) (A)
                 (A) (A) (A) (A) (A) (A) (A) (A) (A) (A) (A) (A)
                 (A) (A) (A) (A) (A) (A) (A) (A) (A) (A) (A) (A)
                 (A) (A) (A) (A) (A) (A) (A) (A) (A) (A) (A) (A)
                 (A) (A) (A) (A) (A) (A) (A) (A) (A) (A) (A) (A)
                 (A)
 The electronic state of the initial guess is 1-A.
 Requested convergence on RMS density matrix=1.00D-08 within 128 cycles.
 Requested convergence on MAX density matrix=1.00D-06.
 Requested convergence on             energy=1.00D-06.
 No special actions if energy rises.
 Keep R1 ints in memory in canonical form, NReq=1421143781.
 Integral accuracy reduced to 1.0D-05 until final iterations.
 Initial convergence to 1.0D-05 achieved.  Increase integral accuracy.
 SCF Done:  E(RB3LYP) =  -752.062877356     A.U. after   16 cycles
             Convg  =    0.2381D-08             -V/T =  2.0098

 **********************************************************************

            Population analysis using the SCF density.

 **********************************************************************

 Orbital symmetries:
       Occupied  (A) (A) (A) (A) (A) (A) (A) (A) (A) (A) (A) (A)
                 (A) (A) (A) (A) (A) (A) (A) (A) (A) (A) (A) (A)
                 (A) (A) (A) (A) (A) (A) (A) (A) (A) (A) (A) (A)
                 (A) (A) (A) (A) (A) (A) (A) (A) (A) (A) (A) (A)
                 (A) (A) (A) (A) (A) (A) (A) (A) (A) (A) (A) (A)
       Virtual   (A) (A) (A) (A) (A) (A) (A) (A) (A) (A) (A) (A)
                 (A) (A) (A) (A) (A) (A) (A) (A) (A) (A) (A) (A)
                 (A) (A) (A) (A) (A) (A) (A) (A) (A) (A) (A) (A)
                 (A) (A) (A) (A) (A) (A) (A) (A) (A) (A) (A) (A)
                 (A) (A) (A) (A) (A) (A) (A) (A) (A) (A) (A) (A)
                 (A) (A) (A) (A) (A) (A) (A) (A) (A) (A) (A) (A)
                 (A) (A) (A) (A) (A) (A) (A) (A) (A) (A) (A) (A)
                 (A) (A) (A) (A) (A) (A) (A) (A) (A) (A) (A) (A)
                 (A) (A) (A) (A) (A) (A) (A) (A) (A) (A) (A) (A)
                 (A) (A) (A) (A) (A) (A) (A) (A) (A) (A) (A) (A)
                 (A) (A) (A) (A) (A) (A) (A) (A) (A) (A) (A) (A)
                 (A) (A) (A) (A) (A) (A) (A) (A) (A) (A) (A) (A)
                 (A) (A) (A) (A) (A) (A) (A) (A) (A) (A) (A) (A)
                 (A) (A) (A) (A) (A) (A) (A) (A) (A) (A) (A) (A)
                 (A) (A) (A) (A) (A) (A) (A) (A) (A) (A) (A) (A)
                 (A) (A) (A) (A) (A) (A) (A) (A) (A) (A) (A) (A)
                 (A) (A) (A) (A) (A) (A) (A) (A) (A) (A) (A) (A)
                 (A) (A) (A) (A) (A) (A) (A) (A) (A) (A) (A) (A)
                 (A) (A) (A) (A) (A) (A) (A) (A) (A) (A) (A) (A)
                 (A) (A) (A) (A) (A) (A) (A) (A) (A) (A) (A) (A)
                 (A) (A) (A) (A) (A) (A) (A) (A) (A) (A) (A) (A)
                 (A) (A) (A) (A) (A) (A) (A) (A) (A) (A) (A) (A)
                 (A)
 The electronic state is 1-A.
 Alpha  occ. eigenvalues --  -24.70418 -19.09803 -14.35246 -14.32478 -10.26845
 Alpha  occ. eigenvalues --  -10.26390 -10.22390 -10.22192 -10.21574 -10.21056
 Alpha  occ. eigenvalues --  -10.19911 -10.19143 -10.18841 -10.18789 -10.18617
 Alpha  occ. eigenvalues --  -10.18138  -1.21437  -1.01789  -0.91268  -0.89990
 Alpha  occ. eigenvalues --   -0.84315  -0.76445  -0.73373  -0.72625  -0.71159
 Alpha  occ. eigenvalues --   -0.69071  -0.67247  -0.61408  -0.60627  -0.57857
 Alpha  occ. eigenvalues --   -0.53277  -0.52612  -0.49544  -0.48382  -0.48301
 Alpha  occ. eigenvalues --   -0.46736  -0.46519  -0.45714  -0.44518  -0.44345
 Alpha  occ. eigenvalues --   -0.43148  -0.42068  -0.40868  -0.40319  -0.39918
 Alpha  occ. eigenvalues --   -0.39648  -0.39333  -0.38973  -0.37230  -0.36967
 Alpha  occ. eigenvalues --   -0.36052  -0.34734  -0.34319  -0.33466  -0.32870
 Alpha  occ. eigenvalues --   -0.24768  -0.24091  -0.22966  -0.22245  -0.18632
 Alpha virt. eigenvalues --    0.00069   0.00890   0.02690   0.07648   0.09732
 Alpha virt. eigenvalues --    0.11097   0.11437   0.12411   0.12914   0.13251
 Alpha virt. eigenvalues --    0.14206   0.15076   0.15193   0.16082   0.16313
 Alpha virt. eigenvalues --    0.16813   0.16872   0.18052   0.18750   0.19157
 Alpha virt. eigenvalues --    0.19636   0.20228   0.21510   0.22064   0.24124
 Alpha virt. eigenvalues --    0.25283   0.27055   0.28115   0.28728   0.31614
 Alpha virt. eigenvalues --    0.32532   0.33408   0.35636   0.35964   0.40283
 Alpha virt. eigenvalues --    0.44974   0.48264   0.48703   0.49810   0.50237
 Alpha virt. eigenvalues --    0.51561   0.51859   0.53909   0.54569   0.55161
 Alpha virt. eigenvalues --    0.55843   0.56565   0.57981   0.59188   0.60311
 Alpha virt. eigenvalues --    0.60955   0.61414   0.61533   0.62020   0.63212
 Alpha virt. eigenvalues --    0.63608   0.65241   0.66061   0.68264   0.70532
 Alpha virt. eigenvalues --    0.70947   0.72247   0.72727   0.73913   0.76168
 Alpha virt. eigenvalues --    0.78024   0.79617   0.80107   0.80699   0.81507
 Alpha virt. eigenvalues --    0.82609   0.82919   0.83713   0.83794   0.84700
 Alpha virt. eigenvalues --    0.85704   0.86169   0.86532   0.88321   0.88962
 Alpha virt. eigenvalues --    0.90039   0.90739   0.91530   0.91802   0.92771
 Alpha virt. eigenvalues --    0.93228   0.94543   0.95765   0.97458   0.97758
 Alpha virt. eigenvalues --    0.99179   1.00811   1.02974   1.04983   1.07361
 Alpha virt. eigenvalues --    1.08145   1.09270   1.10701   1.17141   1.17590
 Alpha virt. eigenvalues --    1.18798   1.20368   1.22688   1.24328   1.24972
 Alpha virt. eigenvalues --    1.26141   1.27517   1.28944   1.30581   1.31174
 Alpha virt. eigenvalues --    1.34397   1.35735   1.36643   1.37670   1.39597
 Alpha virt. eigenvalues --    1.41003   1.41687   1.41976   1.45150   1.47431
 Alpha virt. eigenvalues --    1.48015   1.50851   1.53975   1.56964   1.60649
 Alpha virt. eigenvalues --    1.61869   1.66502   1.67758   1.69446   1.73973
 Alpha virt. eigenvalues --    1.75059   1.76681   1.77690   1.79585   1.79738
 Alpha virt. eigenvalues --    1.82259   1.83289   1.83742   1.85950   1.86966
 Alpha virt. eigenvalues --    1.87447   1.88510   1.89241   1.90245   1.91040
 Alpha virt. eigenvalues --    1.91939   1.92487   1.93698   1.94154   1.94673
 Alpha virt. eigenvalues --    1.97280   1.97933   1.98379   1.99687   2.00607
 Alpha virt. eigenvalues --    2.00959   2.02752   2.03460   2.03874   2.05191
 Alpha virt. eigenvalues --    2.05545   2.05990   2.08051   2.08333   2.10930
 Alpha virt. eigenvalues --    2.11925   2.12536   2.14513   2.15766   2.17351
 Alpha virt. eigenvalues --    2.20718   2.21940   2.24072   2.24998   2.27193
 Alpha virt. eigenvalues --    2.29054   2.29478   2.31317   2.31426   2.32564
 Alpha virt. eigenvalues --    2.34207   2.35297   2.36166   2.38445   2.39065
 Alpha virt. eigenvalues --    2.39963   2.40983   2.41069   2.41943   2.44083
 Alpha virt. eigenvalues --    2.45206   2.47719   2.49629   2.51215   2.52889
 Alpha virt. eigenvalues --    2.54382   2.54813   2.55217   2.57590   2.59504
 Alpha virt. eigenvalues --    2.59938   2.61517   2.63229   2.63874   2.64051
 Alpha virt. eigenvalues --    2.66224   2.66776   2.69205   2.70140   2.72102
 Alpha virt. eigenvalues --    2.72521   2.74796   2.76267   2.77646   2.80873
 Alpha virt. eigenvalues --    2.84164   2.84660   2.85568   2.86030   2.88456
 Alpha virt. eigenvalues --    2.88720   2.90565   2.92593   2.99210   3.01059
 Alpha virt. eigenvalues --    3.04934   3.08220   3.10555   3.11949   3.12910
 Alpha virt. eigenvalues --    3.17954   3.19545   3.21247   3.24218   3.24513
 Alpha virt. eigenvalues --    3.28973   3.33946   3.35259   3.36319   3.41736
 Alpha virt. eigenvalues --    3.42220   3.43290   3.44717   3.44965   3.45906
 Alpha virt. eigenvalues --    3.47593   3.48779   3.51218   3.84175   3.97824
 Alpha virt. eigenvalues --    4.01689   4.13515   4.14607   4.20431   4.25475
 Alpha virt. eigenvalues --    4.36496   4.41443   4.44517   4.48908   4.51379
 Alpha virt. eigenvalues --    4.54541   4.59309   4.71934   4.80989   5.56933
          Condensed to atoms (all electrons):
              1          2          3          4          5          6
     1  C    4.815957   0.278483  -0.048670  -0.018030   0.002764  -0.001281
     2  N    0.278483   7.086745   0.275227   0.240943  -0.099938  -0.108633
     3  C   -0.048670   0.275227   4.795142  -0.019671   0.007943   0.005816
     4  C   -0.018030   0.240943  -0.019671   4.494214   0.563134   0.321109
     5  O    0.002764  -0.099938   0.007943   0.563134   8.088494  -0.075494
     6  C   -0.001281  -0.108633   0.005816   0.321109  -0.075494   4.996629
     7  N    0.000178   0.000991  -0.000315  -0.056105  -0.001588   0.349479
     8  C   -0.004036   0.002787  -0.000082  -0.002494  -0.000125  -0.060820
     9  C   -0.000011   0.000201  -0.000003  -0.001941  -0.000077  -0.037298
    10  C    0.000004  -0.000663   0.000035   0.003196  -0.001313   0.000566
    11  C   -0.000001   0.000026   0.000019  -0.000517   0.001897   0.000979
    12  C    0.000000  -0.000003   0.000009  -0.000039  -0.000164   0.000004
    13  C    0.000000   0.000003  -0.000080  -0.000056   0.000292  -0.000001
    14  C   -0.000001   0.000026  -0.000722   0.000010  -0.000219  -0.000048
    15  C   -0.000001   0.000283  -0.000397   0.001832  -0.000299  -0.000715
    16  F    0.000004  -0.000083   0.000056   0.000148  -0.000001  -0.000149
    17  H    0.387492  -0.029603  -0.005946   0.001106  -0.000069   0.000063
    18  H    0.386878  -0.040024   0.003896  -0.002592   0.000173  -0.001016
    19  H    0.381442  -0.052443   0.002284  -0.000356  -0.000063  -0.000446
    20  H   -0.005393  -0.036982   0.380633   0.004409   0.000515  -0.000076
    21  H    0.004245  -0.035344   0.385899  -0.003868   0.006925   0.000205
    22  H    0.000862  -0.047009   0.387889  -0.002899   0.001464  -0.000189
    23  H    0.001496   0.003130  -0.000299  -0.043447   0.003909   0.352162
    24  H   -0.000188   0.005246  -0.000180  -0.042237   0.002862   0.358981
    25  H   -0.001684   0.001492   0.000316   0.004526   0.000055  -0.000498
    26  H   -0.000909  -0.000002  -0.000015  -0.002410  -0.000004  -0.006893
    27  H    0.000163   0.000060  -0.000003  -0.000272  -0.000002   0.004388
    28  H   -0.000001   0.000001   0.000000  -0.000092   0.000001   0.003863
    29  H    0.000000   0.000004  -0.000001  -0.000606   0.000002  -0.002690
    30  H    0.000000   0.000001   0.000000  -0.000030   0.000012   0.000053
    31  H    0.000000   0.000000   0.000000  -0.000001  -0.000010   0.000001
    32  H    0.000000   0.000000   0.000000   0.000000   0.000000   0.000000
    33  H    0.000000   0.000001  -0.000015   0.000007  -0.000007   0.000001
              7          8          9         10         11         12
     1  C    0.000178  -0.004036  -0.000011   0.000004  -0.000001   0.000000
     2  N    0.000991   0.002787   0.000201  -0.000663   0.000026  -0.000003
     3  C   -0.000315  -0.000082  -0.000003   0.000035   0.000019   0.000009
     4  C   -0.056105  -0.002494  -0.001941   0.003196  -0.000517  -0.000039
     5  O   -0.001588  -0.000125  -0.000077  -0.001313   0.001897  -0.000164
     6  C    0.349479  -0.060820  -0.037298   0.000566   0.000979   0.000004
     7  N    6.833148   0.323866   0.326561  -0.069217  -0.001370  -0.000065
     8  C    0.323866   4.822337  -0.040716  -0.001886  -0.000052   0.000004
     9  C    0.326561  -0.040716   4.864710   0.308257  -0.043578   0.006012
    10  C   -0.069217  -0.001886   0.308257   5.064334   0.516283  -0.024828
    11  C   -0.001370  -0.000052  -0.043578   0.516283   4.853292   0.521332
    12  C   -0.000065   0.000004   0.006012  -0.024828   0.521332   4.813504
    13  C   -0.000003  -0.000002  -0.000127  -0.029782  -0.033034   0.543244
    14  C    0.000043   0.000013   0.006829  -0.070154  -0.043119  -0.028787
    15  C    0.000367   0.001743  -0.047557   0.427457  -0.011794  -0.042917
    16  F   -0.000721  -0.002155   0.004490  -0.057636   0.002409  -0.000055
    17  H   -0.000008   0.000085   0.000001   0.000000   0.000000   0.000000
    18  H   -0.000100   0.000131   0.000001  -0.000001   0.000000   0.000000
    19  H   -0.000068   0.001442  -0.000012   0.000016   0.000000   0.000000
    20  H    0.000009  -0.000006   0.000000   0.000002   0.000000   0.000000
    21  H   -0.000012  -0.000002  -0.000020   0.000025  -0.000087  -0.000024
    22  H   -0.000006   0.000004   0.000000  -0.000001   0.000000   0.000000
    23  H   -0.031953  -0.013519   0.003143  -0.000175  -0.000002   0.000000
    24  H   -0.040405   0.006274  -0.001429  -0.001786   0.000002   0.000008
    25  H   -0.057566   0.375085   0.000260   0.002813  -0.000007   0.000000
    26  H   -0.036090   0.379348   0.003206  -0.000260   0.000003   0.000000
    27  H   -0.040677   0.376249  -0.004531  -0.000862   0.000000   0.000000
    28  H   -0.033340  -0.006633   0.378336  -0.037240   0.002636  -0.000243
    29  H   -0.047901   0.004581   0.376641  -0.055570  -0.006456   0.000255
    30  H    0.000213  -0.000005  -0.009951  -0.041276   0.365621  -0.040226
    31  H    0.000001   0.000000  -0.000146   0.004291  -0.037126   0.364883
    32  H    0.000000   0.000000   0.000005   0.000400   0.004738  -0.039157
    33  H    0.000006   0.000000  -0.000136   0.006055   0.000436   0.004793
             13         14         15         16         17         18
     1  C    0.000000  -0.000001  -0.000001   0.000004   0.387492   0.386878
     2  N    0.000003   0.000026   0.000283  -0.000083  -0.029603  -0.040024
     3  C   -0.000080  -0.000722  -0.000397   0.000056  -0.005946   0.003896
     4  C   -0.000056   0.000010   0.001832   0.000148   0.001106  -0.002592
     5  O    0.000292  -0.000219  -0.000299  -0.000001  -0.000069   0.000173
     6  C   -0.000001  -0.000048  -0.000715  -0.000149   0.000063  -0.001016
     7  N   -0.000003   0.000043   0.000367  -0.000721  -0.000008  -0.000100
     8  C   -0.000002   0.000013   0.001743  -0.002155   0.000085   0.000131
     9  C   -0.000127   0.006829  -0.047557   0.004490   0.000001   0.000001
    10  C   -0.029782  -0.070154   0.427457  -0.057636   0.000000  -0.000001
    11  C   -0.033034  -0.043119  -0.011794   0.002409   0.000000   0.000000
    12  C    0.543244  -0.028787  -0.042917  -0.000055   0.000000   0.000000
    13  C    4.824979   0.492987  -0.014916   0.002702   0.000000   0.000000
    14  C    0.492987   5.024731   0.477873  -0.045511   0.000000   0.000000
    15  C   -0.014916   0.477873   4.626375   0.300032   0.000000   0.000001
    16  F    0.002702  -0.045511   0.300032   9.077521   0.000000   0.000000
    17  H    0.000000   0.000000   0.000000   0.000000   0.586022  -0.025015
    18  H    0.000000   0.000000   0.000001   0.000000  -0.025015   0.597584
    19  H    0.000000   0.000000  -0.000019  -0.000013  -0.035578  -0.041556
    20  H    0.000000   0.000003  -0.000003  -0.000001  -0.000619  -0.000003
    21  H    0.000321   0.003228   0.001295  -0.000012   0.000001  -0.000244
    22  H    0.000000   0.000001   0.000015   0.000000   0.002528   0.000265
    23  H    0.000000  -0.000001  -0.000016   0.000000   0.000192   0.000219
    24  H   -0.000001   0.000002   0.000091   0.000000   0.000002   0.000194
    25  H   -0.000002   0.000038  -0.000648   0.010210   0.000053   0.000132
    26  H    0.000000   0.000000  -0.000027   0.000110   0.000031  -0.000040
    27  H    0.000000  -0.000001   0.000084  -0.000077  -0.000001  -0.000001
    28  H    0.000010   0.000003  -0.006601   0.001719   0.000000   0.000000
    29  H   -0.000017  -0.000141   0.005288   0.000110   0.000000   0.000000
    30  H    0.004788   0.000243   0.004203  -0.000019   0.000000   0.000000
    31  H   -0.041710   0.004699   0.000848   0.000001   0.000000   0.000000
    32  H    0.368993  -0.038801   0.003767  -0.000021   0.000000   0.000000
    33  H   -0.039749   0.354287  -0.035218  -0.000407   0.000000   0.000000
             19         20         21         22         23         24
     1  C    0.381442  -0.005393   0.004245   0.000862   0.001496  -0.000188
     2  N   -0.052443  -0.036982  -0.035344  -0.047009   0.003130   0.005246
     3  C    0.002284   0.380633   0.385899   0.387889  -0.000299  -0.000180
     4  C   -0.000356   0.004409  -0.003868  -0.002899  -0.043447  -0.042237
     5  O   -0.000063   0.000515   0.006925   0.001464   0.003909   0.002862
     6  C   -0.000446  -0.000076   0.000205  -0.000189   0.352162   0.358981
     7  N   -0.000068   0.000009  -0.000012  -0.000006  -0.031953  -0.040405
     8  C    0.001442  -0.000006  -0.000002   0.000004  -0.013519   0.006274
     9  C   -0.000012   0.000000  -0.000020   0.000000   0.003143  -0.001429
    10  C    0.000016   0.000002   0.000025  -0.000001  -0.000175  -0.001786
    11  C    0.000000   0.000000  -0.000087   0.000000  -0.000002   0.000002
    12  C    0.000000   0.000000  -0.000024   0.000000   0.000000   0.000008
    13  C    0.000000   0.000000   0.000321   0.000000   0.000000  -0.000001
    14  C    0.000000   0.000003   0.003228   0.000001  -0.000001   0.000002
    15  C   -0.000019  -0.000003   0.001295   0.000015  -0.000016   0.000091
    16  F   -0.000013  -0.000001  -0.000012   0.000000   0.000000   0.000000
    17  H   -0.035578  -0.000619   0.000001   0.002528   0.000192   0.000002
    18  H   -0.041556  -0.000003  -0.000244   0.000265   0.000219   0.000194
    19  H    0.618758   0.002057   0.000078  -0.000572  -0.000571  -0.000080
    20  H    0.002057   0.618328  -0.025484  -0.041657  -0.000012   0.000001
    21  H    0.000078  -0.025484   0.553752  -0.033377  -0.000013  -0.000020
    22  H   -0.000572  -0.041657  -0.033377   0.612091  -0.000010   0.000016
    23  H   -0.000571  -0.000012  -0.000013  -0.000010   0.649454  -0.026588
    24  H   -0.000080   0.000001  -0.000020   0.000016  -0.026588   0.622290
    25  H    0.001305  -0.000055  -0.000017   0.000008  -0.001305  -0.000487
    26  H    0.002532   0.000003  -0.000001  -0.000001   0.005891   0.000844
    27  H   -0.000310   0.000000  -0.000001   0.000000   0.000980  -0.000133
    28  H    0.000002   0.000000   0.000000   0.000000  -0.000091  -0.000044
    29  H   -0.000001   0.000000   0.000000   0.000000   0.000128   0.004299
    30  H    0.000000   0.000000   0.000000   0.000000   0.000002   0.000245
    31  H    0.000000   0.000000   0.000000   0.000000   0.000000   0.000000
    32  H    0.000000   0.000000   0.000000   0.000000   0.000000   0.000000
    33  H    0.000000   0.000001   0.000206   0.000000   0.000000   0.000000
             25         26         27         28         29         30
     1  C   -0.001684  -0.000909   0.000163  -0.000001   0.000000   0.000000
     2  N    0.001492  -0.000002   0.000060   0.000001   0.000004   0.000001
     3  C    0.000316  -0.000015  -0.000003   0.000000  -0.000001   0.000000
     4  C    0.004526  -0.002410  -0.000272  -0.000092  -0.000606  -0.000030
     5  O    0.000055  -0.000004  -0.000002   0.000001   0.000002   0.000012
     6  C   -0.000498  -0.006893   0.004388   0.003863  -0.002690   0.000053
     7  N   -0.057566  -0.036090  -0.040677  -0.033340  -0.047901   0.000213
     8  C    0.375085   0.379348   0.376249  -0.006633   0.004581  -0.000005
     9  C    0.000260   0.003206  -0.004531   0.378336   0.376641  -0.009951
    10  C    0.002813  -0.000260  -0.000862  -0.037240  -0.055570  -0.041276
    11  C   -0.000007   0.000003   0.000000   0.002636  -0.006456   0.365621
    12  C    0.000000   0.000000   0.000000  -0.000243   0.000255  -0.040226
    13  C   -0.000002   0.000000   0.000000   0.000010  -0.000017   0.004788
    14  C    0.000038   0.000000  -0.000001   0.000003  -0.000141   0.000243
    15  C   -0.000648  -0.000027   0.000084  -0.006601   0.005288   0.004203
    16  F    0.010210   0.000110  -0.000077   0.001719   0.000110  -0.000019
    17  H    0.000053   0.000031  -0.000001   0.000000   0.000000   0.000000
    18  H    0.000132  -0.000040  -0.000001   0.000000   0.000000   0.000000
    19  H    0.001305   0.002532  -0.000310   0.000002  -0.000001   0.000000
    20  H   -0.000055   0.000003   0.000000   0.000000   0.000000   0.000000
    21  H   -0.000017  -0.000001  -0.000001   0.000000   0.000000   0.000000
    22  H    0.000008  -0.000001   0.000000   0.000000   0.000000   0.000000
    23  H   -0.001305   0.005891   0.000980  -0.000091   0.000128   0.000002
    24  H   -0.000487   0.000844  -0.000133  -0.000044   0.004299   0.000245
    25  H    0.649779  -0.047014  -0.046281  -0.000338  -0.000527  -0.000003
    26  H   -0.047014   0.630637  -0.023396   0.000252  -0.000096   0.000000
    27  H   -0.046281  -0.023396   0.631669   0.004874   0.000864   0.000001
    28  H   -0.000338   0.000252   0.004874   0.607336  -0.033952   0.000195
    29  H   -0.000527  -0.000096   0.000864  -0.033952   0.646661   0.007821
    30  H   -0.000003   0.000000   0.000001   0.000195   0.007821   0.628042
    31  H    0.000000   0.000000   0.000000   0.000003  -0.000004  -0.005601
    32  H    0.000000   0.000000   0.000000   0.000000   0.000000  -0.000199
    33  H   -0.000007   0.000000   0.000000   0.000002   0.000003   0.000014
             31         32         33
     1  C    0.000000   0.000000   0.000000
     2  N    0.000000   0.000000   0.000001
     3  C    0.000000   0.000000  -0.000015
     4  C   -0.000001   0.000000   0.000007
     5  O   -0.000010   0.000000  -0.000007
     6  C    0.000001   0.000000   0.000001
     7  N    0.000001   0.000000   0.000006
     8  C    0.000000   0.000000   0.000000
     9  C   -0.000146   0.000005  -0.000136
    10  C    0.004291   0.000400   0.006055
    11  C   -0.037126   0.004738   0.000436
    12  C    0.364883  -0.039157   0.004793
    13  C   -0.041710   0.368993  -0.039749
    14  C    0.004699  -0.038801   0.354287
    15  C    0.000848   0.003767  -0.035218
    16  F    0.000001  -0.000021  -0.000407
    17  H    0.000000   0.000000   0.000000
    18  H    0.000000   0.000000   0.000000
    19  H    0.000000   0.000000   0.000000
    20  H    0.000000   0.000000   0.000001
    21  H    0.000000   0.000000   0.000206
    22  H    0.000000   0.000000   0.000000
    23  H    0.000000   0.000000   0.000000
    24  H    0.000000   0.000000   0.000000
    25  H    0.000000   0.000000  -0.000007
    26  H    0.000000   0.000000   0.000000
    27  H    0.000000   0.000000   0.000000
    28  H    0.000003   0.000000   0.000002
    29  H   -0.000004   0.000000   0.000003
    30  H   -0.005601  -0.000199   0.000014
    31  H    0.632553  -0.005709  -0.000176
    32  H   -0.005709   0.624402  -0.006659
    33  H   -0.000176  -0.006659   0.625713
 Mulliken atomic charges:
              1
     1  C   -0.179762
     2  N   -0.444923
     3  C   -0.168767
     4  C    0.563030
     5  O   -0.501068
     6  C   -0.098049
     7  N   -0.417354
     8  C   -0.161416
     9  C   -0.091117
    10  C    0.058918
    11  C   -0.092531
    12  C   -0.077539
    13  C   -0.078841
    14  C   -0.137513
    15  C    0.309574
    16  F   -0.292651
    17  H    0.119264
    18  H    0.121118
    19  H    0.122172
    20  H    0.104331
    21  H    0.142347
    22  H    0.120580
    23  H    0.097296
    24  H    0.112224
    25  H    0.110364
    26  H    0.094302
    27  H    0.097216
    28  H    0.119342
    29  H    0.101304
    30  H    0.085856
    31  H    0.083201
    32  H    0.088243
    33  H    0.090850
 Sum of Mulliken atomic charges =   0.00000
 Mulliken charges with hydrogens summed into heavy atoms:
              1
     1  C    0.182791
     2  N   -0.444923
     3  C    0.198491
     4  C    0.563030
     5  O   -0.501068
     6  C    0.111471
     7  N   -0.417354
     8  C    0.140466
     9  C    0.129529
    10  C    0.058918
    11  C   -0.006675
    12  C    0.005662
    13  C    0.009403
    14  C   -0.046663
    15  C    0.309574
    16  F   -0.292651
 Sum of Mulliken charges with hydrogens summed into heavy atoms =   0.00000
 Electronic spatial extent (au):  <R**2>=           3387.0608
 Charge=              0.0000 electrons
 Dipole moment (field-independent basis, Debye):
    X=             -2.0411    Y=              0.1660    Z=              1.0647  Tot=              2.3081
 Quadrupole moment (field-independent basis, Debye-Ang):
   XX=            -82.1230   YY=            -90.8112   ZZ=            -96.2193
   XY=              0.6984   XZ=             -2.2094   YZ=             -5.1818
 Traceless Quadrupole moment (field-independent basis, Debye-Ang):
   XX=              7.5948   YY=             -1.0934   ZZ=             -6.5015
   XY=              0.6984   XZ=             -2.2094   YZ=             -5.1818
 Octapole moment (field-independent basis, Debye-Ang**2):
  XXX=            -36.1716  YYY=             -9.5319  ZZZ=              6.6512  XYY=              1.9023
  XXY=            -20.4434  XXZ=             -5.0454  XZZ=              0.8806  YZZ=              4.0020
  YYZ=             15.4219  XYZ=             -1.5772
 Hexadecapole moment (field-independent basis, Debye-Ang**3):
 XXXX=          -2450.6158 YYYY=          -1229.3373 ZZZZ=           -702.9064 XXXY=            -25.1251
 XXXZ=            -20.1992 YYYX=             28.1332 YYYZ=             14.0272 ZZZX=              3.2283
 ZZZY=            -12.4795 XXYY=           -590.5270 XXZZ=           -511.9525 YYZZ=           -318.0219
 XXYZ=             -6.0267 YYXZ=             -2.8833 ZZXY=             -0.7455
 N-N= 1.176548076095D+03 E-N=-4.106108968052D+03  KE= 7.447871752331D+02
 1\1\GINC-C02\SP\RB3LYP\6-31G(d,p)\C12H17F1N2O1\TUU61186\08-Jun-2026\0\
 \# b3lyp/6-31g(d,p)\\Generated by mdgx\\0,1\C,0,12.2598332,18.8546406,
 15.2959364\N,0,12.6351545,17.5910928,15.9610906\C,0,13.0821635,17.7326
 146,17.3590376\C,0,12.4499932,16.3241962,15.3976024\O,0,12.4179287,15.
 3172631,16.0828876\C,0,12.3707251,16.2253084,13.8598683\N,0,13.6962138
 ,16.024873,13.2212538\C,0,14.2974267,17.3483884,12.9447228\C,0,14.5921
 598,14.8468704,13.269046\C,0,14.9404112,14.3572895,14.6745734\C,0,14.4
 457412,13.1120415,15.1089752\C,0,14.7504394,12.6285889,16.3914565\C,0,
 15.5626119,13.3807107,17.252098\C,0,16.0814956,14.6111643,16.8238771\C
 ,0,15.7804624,15.092837,15.5388488\F,0,16.3205571,16.2625632,15.139487
 \H,0,12.0905002,19.6393723,16.044262\H,0,11.3321876,18.7192578,14.7266
 867\H,0,13.0644199,19.1755941,14.6246515\H,0,13.5599957,18.7094705,17.
 5065339\H,0,13.8096848,16.9465917,17.5985132\H,0,12.2187966,17.6445409
 ,18.0302419\H,0,11.8490561,17.0932464,13.4412202\H,0,11.7410119,15.354
 881,13.6363202\H,0,14.8755918,17.700436,13.8060657\H,0,13.5375465,18.0
 955513,12.6839954\H,0,14.9858684,17.2700889,12.0940973\H,0,15.5228469,
 15.0653198,12.7311022\H,0,14.1073625,14.0231543,12.7311228\H,0,13.8074
 023,12.5216079,14.457872\H,0,14.3533694,11.6721046,16.7185748\H,0,15.7
 958538,13.0069098,18.2448577\H,0,16.7210882,15.18593,17.4870209\\Versi
 on=EM64L-G09RevC.01\State=1-A\HF=-752.0628774\RMSD=2.381e-09\Dipole=-0
 .0642264,0.8827915,-0.2029184\Quadrupole=-4.2685313,4.5239437,-0.25541
 24,-4.0564629,2.942467,1.1295811\PG=C01 [X(C12H17F1N2O1)]\\@


 THE ONLY EXISTING THINGS ARE ATOMS AND EMPTY SPACE;
 ALL ELSE IS MERE OPINION. -- DEMOCRITUS OF ABDERA D. 370 B.C.
 EXPERIMENTS ARE THE ONLY MEANS OF KNOWLEDGE AT OUR DISPOSAL
 THE REST IS POETRY, IMAGINATION. -- MAX PLANCK
 Job cpu time:  0 days  0 hours  3 minutes 49.9 seconds.
 File lengths (MBytes):  RWF=     47 Int=      0 D2E=      0 Chk=      5 Scr=      1
 Normal termination of Gaussian 09 at Mon Jun  8 05:50:22 2026.
