 Entering Gaussian System, Link 0=/data/opt/apps/g09-C01/g09
 Initial command:
 /data/opt/apps/g09-C01/l1.exe /tmp/g09-tuu61186-120611e956b4d176x/Gau-120747.inp -scrdir=/tmp/g09-tuu61186-120611e956b4d176x/
 Entering Link 1 = /data/opt/apps/g09-C01/l1.exe PID=    120752.
  
 Copyright (c) 1988,1990,1992,1993,1995,1998,2003,2009,2011,
            Gaussian, Inc.  All Rights Reserved.
  
 This is part of the Gaussian(R) 09 program.  It is based on
 the Gaussian(R) 03 system (copyright 2003, Gaussian, Inc.),
 the Gaussian(R) 98 system (copyright 1998, Gaussian, Inc.),
 the Gaussian(R) 94 system (copyright 1995, Gaussian, Inc.),
 the Gaussian 92(TM) system (copyright 1992, Gaussian, Inc.),
 the Gaussian 90(TM) system (copyright 1990, Gaussian, Inc.),
 the Gaussian 88(TM) system (copyright 1988, Gaussian, Inc.),
 the Gaussian 86(TM) system (copyright 1986, Carnegie Mellon
 University), and the Gaussian 82(TM) system (copyright 1983,
 Carnegie Mellon University). Gaussian is a federally registered
 trademark of Gaussian, Inc.
  
 This software contains proprietary and confidential information,
 including trade secrets, belonging to Gaussian, Inc.
  
 This software is provided under written license and may be
 used, copied, transmitted, or stored only in accord with that
 written license.
  
 The following legend is applicable only to US Government
 contracts under FAR:
  
                    RESTRICTED RIGHTS LEGEND
  
 Use, reproduction and disclosure by the US Government is
 subject to restrictions as set forth in subparagraphs (a)
 and (c) of the Commercial Computer Software - Restricted
 Rights clause in FAR 52.227-19.
  
 Gaussian, Inc.
 340 Quinnipiac St., Bldg. 40, Wallingford CT 06492
  
  
 ---------------------------------------------------------------
 Warning -- This program may not be used in any manner that
 competes with the business of Gaussian, Inc. or will provide
 assistance to any competitor of Gaussian, Inc.  The licensee
 of this program is prohibited from giving any competitor of
 Gaussian, Inc. access to this program.  By using this program,
 the user acknowledges that Gaussian, Inc. is engaged in the
 business of creating and licensing software in the field of
 computational chemistry and represents and warrants to the
 licensee that it is not a competitor of Gaussian, Inc. and that
 it will not use this program in any manner prohibited above.
 ---------------------------------------------------------------
  

 Cite this work as:
 Gaussian 09, Revision C.01,
 M. J. Frisch, G. W. Trucks, H. B. Schlegel, G. E. Scuseria, 
 M. A. Robb, J. R. Cheeseman, G. Scalmani, V. Barone, B. Mennucci, 
 G. A. Petersson, H. Nakatsuji, M. Caricato, X. Li, H. P. Hratchian, 
 A. F. Izmaylov, J. Bloino, G. Zheng, J. L. Sonnenberg, M. Hada, 
 M. Ehara, K. Toyota, R. Fukuda, J. Hasegawa, M. Ishida, T. Nakajima, 
 Y. Honda, O. Kitao, H. Nakai, T. Vreven, J. A. Montgomery, Jr., 
 J. E. Peralta, F. Ogliaro, M. Bearpark, J. J. Heyd, E. Brothers, 
 K. N. Kudin, V. N. Staroverov, T. Keith, R. Kobayashi, J. Normand, 
 K. Raghavachari, A. Rendell, J. C. Burant, S. S. Iyengar, J. Tomasi, 
 M. Cossi, N. Rega, J. M. Millam, M. Klene, J. E. Knox, J. B. Cross, 
 V. Bakken, C. Adamo, J. Jaramillo, R. Gomperts, R. E. Stratmann, 
 O. Yazyev, A. J. Austin, R. Cammi, C. Pomelli, J. W. Ochterski, 
 R. L. Martin, K. Morokuma, V. G. Zakrzewski, G. A. Voth, 
 P. Salvador, J. J. Dannenberg, S. Dapprich, A. D. Daniels, 
 O. Farkas, J. B. Foresman, J. V. Ortiz, J. Cioslowski, 
 and D. J. Fox, Gaussian, Inc., Wallingford CT, 2010.
 
 ******************************************
 Gaussian 09:  EM64L-G09RevC.01 23-Sep-2011
                 8-Jun-2026 
 ******************************************
 %nprocshared=8
 Will use up to    8 processors via shared memory.
 %mem=14GB
 ------------------
 # b3lyp/6-31g(d,p)
 ------------------
 1/38=1/1;
 2/12=2,17=6,18=5,40=1/2;
 3/5=1,6=6,7=101,11=2,16=1,25=1,30=1,74=-5/1,2,3;
 4//1;
 5/5=2,38=5/2;
 6/7=2,8=2,9=2,10=2,28=1/1;
 99/5=1,9=1/99;
 -----------------
 Generated by mdgx
 -----------------
 Charge =  0 Multiplicity = 1
 Symbolic Z-Matrix:
 C                     12.59393   20.07943   15.99224 
 N                     12.37445   18.65577   15.6669 
 C                     11.97577   17.80197   16.80515 
 C                     12.4822   18.19398   14.3484 
 O                     12.74411   18.93932   13.4195 
 C                     12.27281   16.68866   14.10061 
 N                     13.54644   15.93911   14.21038 
 C                     14.22792   15.91121   12.89771 
 C                     13.38757   14.60982   14.83379 
 C                     14.71769   14.02651   15.29614 
 C                     15.29129   12.95252   14.59078 
 C                     16.51897   12.40669   14.99924 
 C                     17.18525   12.93025   16.1175 
 C                     16.62285   14.00128   16.82829 
 C                     15.39419   14.5465   16.41922 
 F                     14.86852   15.57859   17.11365 
 H                     11.66343   20.63809   15.83199 
 H                     13.38001   20.49471   15.34916 
 H                     12.90792   20.19036   17.03769 
 H                     12.03984   18.35813   17.74872 
 H                     12.63819   16.93078   16.86559 
 H                     10.94121   17.46453   16.66558 
 H                     11.83239   16.55833   13.10311 
 H                     11.53364   16.30894   14.81527 
 H                     13.88816   15.05372   12.30287 
 H                     15.308    15.79199   13.0491 
 H                     14.06501   16.8409   12.33795 
 H                     12.90149   13.9213   14.13104 
 H                     12.73591   14.68935   15.71278 
 H                     14.7873   12.53987   13.72117 
 H                     16.95392   11.57832   14.44772 
 H                     18.13508   12.50728   16.43165 
 H                     17.14043   14.40627   17.69303 
 
                          Input orientation:                          
 ---------------------------------------------------------------------
 Center     Atomic      Atomic             Coordinates (Angstroms)
 Number     Number       Type             X           Y           Z
 ---------------------------------------------------------------------
      1          6           0       12.593927   20.079435   15.992244
      2          7           0       12.374452   18.655775   15.666896
      3          6           0       11.975773   17.801973   16.805146
      4          6           0       12.482202   18.193985   14.348403
      5          8           0       12.744110   18.939322   13.419497
      6          6           0       12.272813   16.688656   14.100615
      7          7           0       13.546444   15.939109   14.210382
      8          6           0       14.227923   15.911209   12.897709
      9          6           0       13.387569   14.609820   14.833786
     10          6           0       14.717688   14.026506   15.296135
     11          6           0       15.291285   12.952522   14.590779
     12          6           0       16.518968   12.406692   14.999241
     13          6           0       17.185247   12.930249   16.117496
     14          6           0       16.622850   14.001284   16.828290
     15          6           0       15.394190   14.546501   16.419224
     16          9           0       14.868522   15.578587   17.113647
     17          1           0       11.663430   20.638088   15.831991
     18          1           0       13.380014   20.494714   15.349161
     19          1           0       12.907919   20.190364   17.037689
     20          1           0       12.039839   18.358131   17.748720
     21          1           0       12.638189   16.930781   16.865593
     22          1           0       10.941215   17.464531   16.665577
     23          1           0       11.832391   16.558335   13.103105
     24          1           0       11.533644   16.308937   14.815266
     25          1           0       13.888160   15.053716   12.302867
     26          1           0       15.307999   15.791988   13.049099
     27          1           0       14.065009   16.840898   12.337948
     28          1           0       12.901488   13.921300   14.131040
     29          1           0       12.735912   14.689349   15.712784
     30          1           0       14.787302   12.539871   13.721170
     31          1           0       16.953916   11.578317   14.447719
     32          1           0       18.135083   12.507283   16.431653
     33          1           0       17.140430   14.406274   17.693032
 ---------------------------------------------------------------------
                    Distance matrix (angstroms):
                    1          2          3          4          5
     1  C    0.000000
     2  N    1.476763   0.000000
     3  C    2.495948   1.477679   0.000000
     4  C    2.503920   1.401173   2.538844   0.000000
     5  O    2.818055   2.295179   3.653289   1.219422   0.000000
     6  C    3.895992   2.516570   2.939761   1.539889   2.398237
     7  N    4.607018   3.297768   3.559504   2.497224   3.204765
     8  C    5.442444   4.316989   4.890320   3.219180   3.412248
     9  C    5.646997   4.253261   4.008649   3.728475   4.599874
    10  C    6.452354   5.201764   4.904014   4.823223   5.617165
    11  C    7.748079   6.495616   6.277994   5.951691   6.610732
    12  C    8.675424   7.528201   7.280863   7.086031   7.708463
    13  C    8.497456   7.491890   7.165554   7.277035   7.944297
    14  C    7.339966   6.407964   6.003423   6.393242   7.144838
    15  C    6.215878   5.154701   4.736307   5.106086   5.942909
    16  F    5.166136   4.216937   3.661504   4.492372   5.427192
    17  H    1.097087   2.112434   3.014654   2.974065   3.142261
    18  H    1.097245   2.119860   3.367883   2.664758   2.558753
    19  H    1.097201   2.125705   2.574370   3.376244   3.831873
    20  H    2.520934   2.129447   1.097154   3.432897   4.424471
    21  H    3.267830   2.117081   1.096094   2.820684   3.990117
    22  H    3.165842   2.114378   1.097113   2.876811   3.995306
    23  H    4.617922   3.356503   3.907979   2.156008   2.569132
    24  H    4.089759   2.634365   2.526708   2.161280   3.214393
    25  H    6.367447   5.155854   5.610762   4.002777   4.201624
    26  H    5.866045   4.864137   5.408479   3.929746   4.076326
    27  H    5.099616   4.151344   5.024383   2.894486   2.705163
    28  H    6.440598   5.005185   4.802854   4.298707   5.070662
    29  H    5.399192   3.983125   3.385187   3.769400   4.829234
    30  H    8.173964   6.856527   6.716048   6.138070   6.724479
    31  H    9.678020   8.517528   8.311032   7.985809   8.541903
    32  H    9.393347   8.460123   8.130826   8.284539   8.916659
    33  H    7.466466   6.699106   6.244421   6.872582   7.624910
                    6          7          8          9         10
     6  C    0.000000
     7  N    1.481892   0.000000
     8  C    2.423605   1.479292   0.000000
     9  C    2.470178   1.476781   2.479558   0.000000
    10  C    3.807063   2.491731   3.089406   1.524218   0.000000
    11  C    4.828057   3.479781   3.570862   2.535710   1.407119
    12  C    6.096932   4.683607   4.684759   3.832338   2.440605
    13  C    6.505800   5.092269   5.291400   4.346404   2.822279
    14  C    5.795257   4.480277   4.983268   3.849079   2.444949
    15  C    4.439344   3.198829   3.952680   2.558154   1.410453
    16  F    4.128961   3.210423   4.277282   2.886087   2.394797
    17  H    4.355115   5.315615   6.126175   6.348944   7.302647
    18  H    4.155820   4.698729   5.266600   5.907423   6.605293
    19  H    4.614295   5.145342   6.098607   6.019113   6.655930
    20  H    4.018717   4.543276   5.857256   4.935894   5.652346
    21  H    2.799505   2.976321   4.394416   3.174377   3.901580
    22  H    2.992352   3.891287   5.235656   4.182043   5.287451
    23  H    1.098172   2.132482   2.489886   3.034888   4.420914
    24  H    1.096031   2.134015   3.330819   2.514831   3.947007
    25  H    2.917922   2.130564   1.097529   2.617859   3.271534
    26  H    3.334974   2.115017   1.097131   2.875879   2.917972
    27  H    2.518360   2.141995   1.097358   3.415530   4.134933
    28  H    2.838031   2.119862   2.690776   1.097354   2.160347
    29  H    2.609746   2.115673   3.412285   1.097095   2.130820
    30  H    4.866112   3.651557   3.515240   2.735298   2.166897
    31  H    6.938931   5.539287   5.348600   4.696583   3.422595
    32  H    7.568608   6.145493   6.272271   5.432563   3.908456
    33  H    6.465943   5.234040   5.808843   4.722360   3.429142
                   11         12         13         14         15
    11  C    0.000000
    12  C    1.404271   0.000000
    13  C    2.432787   1.403045   0.000000
    14  C    2.807032   2.428773   1.403080   0.000000
    15  C    2.427874   2.803616   2.431294   1.405063   0.000000
    16  F    3.666034   4.153986   3.656941   2.376337   1.350463
    17  H    8.588939   9.592998   9.485924   8.344796   7.167346
    18  H    7.817465   8.682832   8.502426   7.407323   6.370492
    19  H    8.003384   8.819325   8.476529   7.221445   6.198163
    20  H    7.054438   7.939890   7.654933   6.390093   5.248595
    21  H    5.295304   6.245887   6.102429   4.945793   3.671455
    22  H    6.601979   7.711663   7.736151   6.655940   5.329594
    23  H    5.213349   6.541825   7.134607   6.585135   5.265979
    24  H    5.043390   6.333626   6.712074   5.939490   4.536813
    25  H    3.408566   4.604164   5.470950   5.391252   4.412459
    26  H    3.231040   4.090199   4.596593   4.383804   3.593941
    27  H    4.658162   5.724211   6.270092   5.896536   4.867012
    28  H    2.619355   4.016712   4.824809   4.596748   3.440963
    29  H    3.287156   4.475621   4.801541   4.101960   2.754252
    30  H    1.086507   2.156356   3.412464   3.893477   3.416778
    31  H    2.161769   1.086076   2.160878   3.412843   3.889691
    32  H    3.416759   2.161886   1.086179   2.162455   3.416293
    33  H    3.893162   3.411899   2.159391   1.086133   2.166011
                   16         17         18         19         20
    16  F    0.000000
    17  H    6.124852   0.000000
    18  H    5.431148   1.788951   0.000000
    19  H    5.011808   1.789670   1.779503   0.000000
    20  H    4.016295   3.002289   3.481227   2.148536   0.000000
    21  H    2.619990   3.970216   3.943537   3.275248   1.781926
    22  H    4.379645   3.359750   4.106422   3.381797   1.782889
    23  H    5.124689   4.911187   4.789048   5.461625   4.986385
    24  H    4.115504   4.448834   4.605958   4.679024   3.613942
    25  H    4.937631   6.970606   6.256402   7.054400   6.632703
    26  H    4.093803   6.671736   5.578802   6.404290   6.273148
    27  H    5.004635   5.691623   4.784034   5.886029   5.973254
    28  H    3.938498   7.038556   6.702430   6.910124   5.789258
    29  H    2.702070   6.045819   5.852294   5.660929   4.253176
    30  H    4.555138   8.932819   8.240772   8.547596   7.590905
    31  H    5.240057  10.582292   9.648186   9.861307   9.000591
    32  H    4.535245  10.409221   9.358500   9.312371   8.550970
    33  H    2.621368   8.502736   7.530176   7.197174   6.452620
                   21         22         23         24         25
    21  H    0.000000
    22  H    1.790144   0.000000
    23  H    3.865791   3.782406   0.000000
    24  H    2.410508   2.260536   1.755831   0.000000
    25  H    5.089624   5.790488   2.670289   3.664897   0.000000
    26  H    4.794826   5.911439   3.559502   4.199087   1.765744
    27  H    4.747996   5.373582   2.376950   3.581605   1.796253
    28  H    4.074811   4.777137   3.025487   2.835484   2.366032
    29  H    2.522407   3.439533   3.334648   2.207725   3.617730
    30  H    5.812587   6.907546   5.026087   5.097959   3.023154
    31  H    7.288381   8.701666   7.269015   7.203693   5.106628
    32  H    7.069052   8.739609   8.198425   7.787443   6.447291
    33  H    5.227616   6.988481   7.339896   6.583138   6.328533
                   26         27         28         29         30
    26  H    0.000000
    27  H    1.775098   0.000000
    28  H    3.234403   3.618427   0.000000
    29  H    3.863503   4.217248   1.766134   0.000000
    30  H    3.361408   4.575352   2.373317   3.577007   0.000000
    31  H    4.734998   6.363308   4.691698   5.391703   2.479249
    32  H    5.497578   7.218321   5.889209   5.867643   4.307600
    33  H    5.181131   6.637962   5.558023   4.837488   4.979594
                   31         32         33
    31  H    0.000000
    32  H    2.488801   0.000000
    33  H    4.308618   2.487284   0.000000
 Stoichiometry    C12H17FN2O
 Framework group  C1[X(C12H17FN2O)]
 Deg. of freedom    93
 Full point group                 C1      NOp   1
 Largest Abelian subgroup         C1      NOp   1
 Largest concise Abelian subgroup C1      NOp   1
                         Standard orientation:                         
 ---------------------------------------------------------------------
 Center     Atomic      Atomic             Coordinates (Angstroms)
 Number     Number       Type             X           Y           Z
 ---------------------------------------------------------------------
      1          6           0        4.158067   -1.375219   -0.803760
      2          7           0        3.139696   -0.713617    0.036496
      3          6           0        2.572148   -1.548205    1.115795
      4          6           0        2.806254    0.632625   -0.162838
      5          8           0        3.345153    1.314508   -1.018181
      6          6           0        1.708868    1.235801    0.733366
      7          7           0        0.364716    1.065546    0.133137
      8          6           0        0.062684    2.208873   -0.755617
      9          6           0       -0.687119    0.785506    1.131187
     10          6           0       -1.955232    0.230651    0.493014
     11          6           0       -3.104133    1.038540    0.407418
     12          6           0       -4.279215    0.545574   -0.182621
     13          6           0       -4.316420   -0.760720   -0.693254
     14          6           0       -3.176711   -1.575190   -0.613650
     15          6           0       -2.001532   -1.081336   -0.022664
     16          9           0       -0.913236   -1.878196    0.043501
     17          1           0        5.155624   -1.176431   -0.392707
     18          1           0        4.106604   -0.989580   -1.829714
     19          1           0        3.987145   -2.458641   -0.832608
     20          1           0        2.916240   -2.586099    1.025650
     21          1           0        1.477626   -1.535116    1.058599
     22          1           0        2.891221   -1.155405    2.089221
     23          1           0        1.931464    2.300115    0.887206
     24          1           0        1.757217    0.765346    1.722112
     25          1           0       -0.401124    3.027244   -0.190178
     26          1           0       -0.657965    1.896056   -1.521455
     27          1           0        0.963230    2.572568   -1.266438
     28          1           0       -0.920781    1.696809    1.696090
     29          1           0       -0.324508    0.041652    1.851474
     30          1           0       -3.087718    2.053040    0.796027
     31          1           0       -5.160545    1.177216   -0.244644
     32          1           0       -5.225957   -1.140185   -1.149907
     33          1           0       -3.206707   -2.585789   -1.010479
 ---------------------------------------------------------------------
 Rotational constants (GHZ):      1.0137662      0.2798264      0.2429193
 Standard basis: 6-31G(d,p) (6D, 7F)
 There are   325 symmetry adapted basis functions of A   symmetry.
 Integral buffers will be    131072 words long.
 Raffenetti 2 integral format.
 Two-electron integral symmetry is turned on.
   325 basis functions,   567 primitive gaussians,   325 cartesian basis functions
    60 alpha electrons       60 beta electrons
       nuclear repulsion energy      1113.7367479328 Hartrees.
 NAtoms=   33 NActive=   33 NUniq=   33 SFac= 1.00D+00 NAtFMM=   60 NAOKFM=F Big=F
 One-electron integrals computed using PRISM.
 NBasis=   325 RedAO= T  NBF=   325
 NBsUse=   325 1.00D-06 NBFU=   325
 Harris functional with IExCor=  402 diagonalized for initial guess.
 ExpMin= 1.61D-01 ExpMax= 7.00D+03 ExpMxC= 1.05D+03 IAcc=1 IRadAn=         1 AccDes= 0.00D+00
 HarFok:  IExCor=  402 AccDes= 0.00D+00 IRadAn=         1 IDoV= 1
 ScaDFX=  1.000000  1.000000  1.000000  1.000000
 FoFCou: FMM=F IPFlag=           0 FMFlag=      100000 FMFlg1=           0
         NFxFlg=           0 DoJE=T BraDBF=F KetDBF=T FulRan=T
         Omega=  0.000000  0.000000  1.000000  0.000000  0.000000 ICntrl=     500 IOpCl=  0
         NMat0=    1 NMatS0=    1 NMatT0=    0 NMatD0=    1 NMtDS0=    0 NMtDT0=    0
         I1Cent=           4 NGrid=           0.
 Petite list used in FoFCou.
 Initial guess orbital symmetries:
       Occupied  (A) (A) (A) (A) (A) (A) (A) (A) (A) (A) (A) (A)
                 (A) (A) (A) (A) (A) (A) (A) (A) (A) (A) (A) (A)
                 (A) (A) (A) (A) (A) (A) (A) (A) (A) (A) (A) (A)
                 (A) (A) (A) (A) (A) (A) (A) (A) (A) (A) (A) (A)
                 (A) (A) (A) (A) (A) (A) (A) (A) (A) (A) (A) (A)
       Virtual   (A) (A) (A) (A) (A) (A) (A) (A) (A) (A) (A) (A)
                 (A) (A) (A) (A) (A) (A) (A) (A) (A) (A) (A) (A)
                 (A) (A) (A) (A) (A) (A) (A) (A) (A) (A) (A) (A)
                 (A) (A) (A) (A) (A) (A) (A) (A) (A) (A) (A) (A)
                 (A) (A) (A) (A) (A) (A) (A) (A) (A) (A) (A) (A)
                 (A) (A) (A) (A) (A) (A) (A) (A) (A) (A) (A) (A)
                 (A) (A) (A) (A) (A) (A) (A) (A) (A) (A) (A) (A)
                 (A) (A) (A) (A) (A) (A) (A) (A) (A) (A) (A) (A)
                 (A) (A) (A) (A) (A) (A) (A) (A) (A) (A) (A) (A)
                 (A) (A) (A) (A) (A) (A) (A) (A) (A) (A) (A) (A)
                 (A) (A) (A) (A) (A) (A) (A) (A) (A) (A) (A) (A)
                 (A) (A) (A) (A) (A) (A) (A) (A) (A) (A) (A) (A)
                 (A) (A) (A) (A) (A) (A) (A) (A) (A) (A) (A) (A)
                 (A) (A) (A) (A) (A) (A) (A) (A) (A) (A) (A) (A)
                 (A) (A) (A) (A) (A) (A) (A) (A) (A) (A) (A) (A)
                 (A) (A) (A) (A) (A) (A) (A) (A) (A) (A) (A) (A)
                 (A) (A) (A) (A) (A) (A) (A) (A) (A) (A) (A) (A)
                 (A) (A) (A) (A) (A) (A) (A) (A) (A) (A) (A) (A)
                 (A) (A) (A) (A) (A) (A) (A) (A) (A) (A) (A) (A)
                 (A) (A) (A) (A) (A) (A) (A) (A) (A) (A) (A) (A)
                 (A) (A) (A) (A) (A) (A) (A) (A) (A) (A) (A) (A)
                 (A) (A) (A) (A) (A) (A) (A) (A) (A) (A) (A) (A)
                 (A)
 The electronic state of the initial guess is 1-A.
 Requested convergence on RMS density matrix=1.00D-08 within 128 cycles.
 Requested convergence on MAX density matrix=1.00D-06.
 Requested convergence on             energy=1.00D-06.
 No special actions if energy rises.
 Keep R1 ints in memory in canonical form, NReq=1421145923.
 Integral accuracy reduced to 1.0D-05 until final iterations.
 Initial convergence to 1.0D-05 achieved.  Increase integral accuracy.
 SCF Done:  E(RB3LYP) =  -752.081779052     A.U. after   15 cycles
             Convg  =    0.6652D-08             -V/T =  2.0098

 **********************************************************************

            Population analysis using the SCF density.

 **********************************************************************

 Orbital symmetries:
       Occupied  (A) (A) (A) (A) (A) (A) (A) (A) (A) (A) (A) (A)
                 (A) (A) (A) (A) (A) (A) (A) (A) (A) (A) (A) (A)
                 (A) (A) (A) (A) (A) (A) (A) (A) (A) (A) (A) (A)
                 (A) (A) (A) (A) (A) (A) (A) (A) (A) (A) (A) (A)
                 (A) (A) (A) (A) (A) (A) (A) (A) (A) (A) (A) (A)
       Virtual   (A) (A) (A) (A) (A) (A) (A) (A) (A) (A) (A) (A)
                 (A) (A) (A) (A) (A) (A) (A) (A) (A) (A) (A) (A)
                 (A) (A) (A) (A) (A) (A) (A) (A) (A) (A) (A) (A)
                 (A) (A) (A) (A) (A) (A) (A) (A) (A) (A) (A) (A)
                 (A) (A) (A) (A) (A) (A) (A) (A) (A) (A) (A) (A)
                 (A) (A) (A) (A) (A) (A) (A) (A) (A) (A) (A) (A)
                 (A) (A) (A) (A) (A) (A) (A) (A) (A) (A) (A) (A)
                 (A) (A) (A) (A) (A) (A) (A) (A) (A) (A) (A) (A)
                 (A) (A) (A) (A) (A) (A) (A) (A) (A) (A) (A) (A)
                 (A) (A) (A) (A) (A) (A) (A) (A) (A) (A) (A) (A)
                 (A) (A) (A) (A) (A) (A) (A) (A) (A) (A) (A) (A)
                 (A) (A) (A) (A) (A) (A) (A) (A) (A) (A) (A) (A)
                 (A) (A) (A) (A) (A) (A) (A) (A) (A) (A) (A) (A)
                 (A) (A) (A) (A) (A) (A) (A) (A) (A) (A) (A) (A)
                 (A) (A) (A) (A) (A) (A) (A) (A) (A) (A) (A) (A)
                 (A) (A) (A) (A) (A) (A) (A) (A) (A) (A) (A) (A)
                 (A) (A) (A) (A) (A) (A) (A) (A) (A) (A) (A) (A)
                 (A) (A) (A) (A) (A) (A) (A) (A) (A) (A) (A) (A)
                 (A) (A) (A) (A) (A) (A) (A) (A) (A) (A) (A) (A)
                 (A) (A) (A) (A) (A) (A) (A) (A) (A) (A) (A) (A)
                 (A) (A) (A) (A) (A) (A) (A) (A) (A) (A) (A) (A)
                 (A) (A) (A) (A) (A) (A) (A) (A) (A) (A) (A) (A)
                 (A)
 The electronic state is 1-A.
 Alpha  occ. eigenvalues --  -24.71165 -19.10084 -14.35425 -14.32951 -10.27710
 Alpha  occ. eigenvalues --  -10.27341 -10.22128 -10.21959 -10.21216 -10.21082
 Alpha  occ. eigenvalues --  -10.20606 -10.20199 -10.20102 -10.20060 -10.19637
 Alpha  occ. eigenvalues --  -10.19582  -1.22054  -1.01952  -0.91539  -0.90926
 Alpha  occ. eigenvalues --   -0.85689  -0.77334  -0.74701  -0.72825  -0.70769
 Alpha  occ. eigenvalues --   -0.69750  -0.67034  -0.61905  -0.61800  -0.58536
 Alpha  occ. eigenvalues --   -0.53756  -0.53127  -0.49752  -0.49538  -0.48126
 Alpha  occ. eigenvalues --   -0.47742  -0.46560  -0.46004  -0.45187  -0.44599
 Alpha  occ. eigenvalues --   -0.44401  -0.42739  -0.40891  -0.40666  -0.40022
 Alpha  occ. eigenvalues --   -0.39927  -0.39268  -0.38447  -0.37547  -0.36887
 Alpha  occ. eigenvalues --   -0.36185  -0.35723  -0.35149  -0.34648  -0.33774
 Alpha  occ. eigenvalues --   -0.25630  -0.24512  -0.24060  -0.22563  -0.20679
 Alpha virt. eigenvalues --   -0.01374  -0.00473   0.02897   0.07979   0.08600
 Alpha virt. eigenvalues --    0.10190   0.11653   0.13124   0.13348   0.13885
 Alpha virt. eigenvalues --    0.14269   0.14419   0.15541   0.15591   0.16224
 Alpha virt. eigenvalues --    0.16850   0.17293   0.18062   0.18184   0.18664
 Alpha virt. eigenvalues --    0.18770   0.19699   0.20271   0.21785   0.22923
 Alpha virt. eigenvalues --    0.25163   0.26115   0.27132   0.29056   0.30625
 Alpha virt. eigenvalues --    0.31929   0.34099   0.34649   0.35262   0.39631
 Alpha virt. eigenvalues --    0.47358   0.48157   0.49351   0.49855   0.50243
 Alpha virt. eigenvalues --    0.51253   0.52229   0.52635   0.53403   0.55111
 Alpha virt. eigenvalues --    0.55839   0.56997   0.57855   0.58504   0.58864
 Alpha virt. eigenvalues --    0.59636   0.60065   0.60089   0.60361   0.61548
 Alpha virt. eigenvalues --    0.62483   0.63645   0.65159   0.67389   0.68112
 Alpha virt. eigenvalues --    0.68796   0.72348   0.73738   0.74496   0.76246
 Alpha virt. eigenvalues --    0.77656   0.78149   0.79144   0.79692   0.80402
 Alpha virt. eigenvalues --    0.80807   0.81633   0.82603   0.83599   0.84098
 Alpha virt. eigenvalues --    0.84757   0.85870   0.86759   0.87611   0.88165
 Alpha virt. eigenvalues --    0.89412   0.90289   0.90565   0.91568   0.92264
 Alpha virt. eigenvalues --    0.92933   0.93758   0.95283   0.96344   0.97183
 Alpha virt. eigenvalues --    0.98995   1.00155   1.02178   1.04382   1.06051
 Alpha virt. eigenvalues --    1.07241   1.07957   1.09370   1.09881   1.12138
 Alpha virt. eigenvalues --    1.18364   1.18859   1.21673   1.23788   1.25467
 Alpha virt. eigenvalues --    1.25609   1.25917   1.28294   1.29476   1.33401
 Alpha virt. eigenvalues --    1.34190   1.35789   1.37116   1.38818   1.40050
 Alpha virt. eigenvalues --    1.40136   1.40348   1.43412   1.43723   1.46279
 Alpha virt. eigenvalues --    1.47443   1.52188   1.53192   1.56162   1.59154
 Alpha virt. eigenvalues --    1.62483   1.65695   1.69870   1.70107   1.71505
 Alpha virt. eigenvalues --    1.74767   1.75696   1.77905   1.79612   1.80736
 Alpha virt. eigenvalues --    1.80843   1.81000   1.83035   1.83798   1.85650
 Alpha virt. eigenvalues --    1.86823   1.86975   1.88148   1.88776   1.90105
 Alpha virt. eigenvalues --    1.91034   1.91698   1.92684   1.93424   1.94149
 Alpha virt. eigenvalues --    1.94953   1.95422   1.97532   1.98985   1.99611
 Alpha virt. eigenvalues --    2.00703   2.01648   2.02770   2.03769   2.04042
 Alpha virt. eigenvalues --    2.04860   2.06440   2.06880   2.07926   2.08654
 Alpha virt. eigenvalues --    2.10641   2.11509   2.13330   2.13940   2.16156
 Alpha virt. eigenvalues --    2.18448   2.20375   2.24128   2.26769   2.27621
 Alpha virt. eigenvalues --    2.28319   2.29095   2.29637   2.30726   2.32093
 Alpha virt. eigenvalues --    2.33300   2.34895   2.36539   2.36989   2.38459
 Alpha virt. eigenvalues --    2.38944   2.39943   2.41500   2.42635   2.44966
 Alpha virt. eigenvalues --    2.46096   2.47928   2.50071   2.51819   2.52216
 Alpha virt. eigenvalues --    2.53484   2.55020   2.56566   2.57661   2.58324
 Alpha virt. eigenvalues --    2.59297   2.61699   2.63275   2.64805   2.65211
 Alpha virt. eigenvalues --    2.66810   2.67474   2.68269   2.69058   2.71382
 Alpha virt. eigenvalues --    2.73219   2.74505   2.76555   2.79395   2.80815
 Alpha virt. eigenvalues --    2.81764   2.83364   2.85443   2.85574   2.88524
 Alpha virt. eigenvalues --    2.89346   2.92759   2.94319   2.97652   3.00526
 Alpha virt. eigenvalues --    3.03577   3.06027   3.09584   3.09985   3.12907
 Alpha virt. eigenvalues --    3.17336   3.17886   3.20565   3.23167   3.23908
 Alpha virt. eigenvalues --    3.28138   3.33085   3.34571   3.35676   3.41531
 Alpha virt. eigenvalues --    3.42552   3.43709   3.44065   3.45031   3.46335
 Alpha virt. eigenvalues --    3.46426   3.47064   3.52845   3.82884   4.00007
 Alpha virt. eigenvalues --    4.03319   4.11531   4.13772   4.16831   4.18498
 Alpha virt. eigenvalues --    4.35164   4.40058   4.43066   4.48941   4.49967
 Alpha virt. eigenvalues --    4.54064   4.57261   4.70212   4.79141   5.56148
          Condensed to atoms (all electrons):
              1          2          3          4          5          6
     1  C    4.790291   0.280510  -0.050913  -0.020953   0.003908   0.006027
     2  N    0.280510   7.049152   0.272852   0.275778  -0.095533  -0.105489
     3  C   -0.050913   0.272852   4.845178  -0.019335   0.002692   0.001429
     4  C   -0.020953   0.275778  -0.019335   4.373702   0.569077   0.343131
     5  O    0.003908  -0.095533   0.002692   0.569077   8.086405  -0.078703
     6  C    0.006027  -0.105489   0.001429   0.343131  -0.078703   5.065732
     7  N   -0.000180   0.002004  -0.002154  -0.043724  -0.001025   0.284150
     8  C    0.000002  -0.000193   0.000021  -0.003923  -0.003199  -0.043211
     9  C    0.000005  -0.000033  -0.000748   0.003131  -0.000015  -0.034983
    10  C    0.000000   0.000003   0.000123  -0.000086   0.000001   0.005536
    11  C    0.000000   0.000000   0.000000   0.000000   0.000000  -0.000027
    12  C    0.000000   0.000000   0.000000   0.000000   0.000000   0.000002
    13  C    0.000000   0.000000   0.000000   0.000000   0.000000   0.000000
    14  C    0.000000   0.000000  -0.000005   0.000000   0.000000   0.000004
    15  C    0.000000  -0.000002  -0.000053  -0.000024   0.000000   0.000054
    16  F    0.000000   0.000008  -0.002182   0.000042   0.000000  -0.000160
    17  H    0.392979  -0.048881   0.002499  -0.003413   0.001112  -0.000175
    18  H    0.386621  -0.036457   0.004231  -0.002726   0.010585   0.000334
    19  H    0.380394  -0.033660  -0.007996   0.004055   0.000483  -0.000103
    20  H   -0.007414  -0.026333   0.385416   0.001839  -0.000076   0.000074
    21  H    0.002662  -0.038044   0.375671  -0.004318   0.000002  -0.001846
    22  H    0.003285  -0.048009   0.380665  -0.003860   0.000051  -0.001044
    23  H   -0.000159   0.004271  -0.000235  -0.033016   0.001759   0.347179
    24  H   -0.000211  -0.000529   0.001435  -0.029540   0.003623   0.345322
    25  H    0.000000   0.000001  -0.000002  -0.000114   0.000092  -0.005840
    26  H    0.000000   0.000014   0.000001   0.000121  -0.000006   0.005773
    27  H   -0.000006   0.000203  -0.000016   0.000636   0.011150  -0.008454
    28  H    0.000000   0.000001  -0.000017  -0.000205   0.000001  -0.004578
    29  H    0.000004  -0.000017   0.000262   0.000135  -0.000002  -0.007661
    30  H    0.000000   0.000000   0.000000   0.000000   0.000000  -0.000022
    31  H    0.000000   0.000000   0.000000   0.000000   0.000000   0.000000
    32  H    0.000000   0.000000   0.000000   0.000000   0.000000   0.000000
    33  H    0.000000   0.000000   0.000000   0.000000   0.000000   0.000000
              7          8          9         10         11         12
     1  C   -0.000180   0.000002   0.000005   0.000000   0.000000   0.000000
     2  N    0.002004  -0.000193  -0.000033   0.000003   0.000000   0.000000
     3  C   -0.002154   0.000021  -0.000748   0.000123   0.000000   0.000000
     4  C   -0.043724  -0.003923   0.003131  -0.000086   0.000000   0.000000
     5  O   -0.001025  -0.003199  -0.000015   0.000001   0.000000   0.000000
     6  C    0.284150  -0.043211  -0.034983   0.005536  -0.000027   0.000002
     7  N    6.899673   0.305363   0.299834  -0.064246  -0.002191  -0.000051
     8  C    0.305363   4.854702  -0.046654  -0.002174   0.001585  -0.000075
     9  C    0.299834  -0.046654   4.911394   0.334144  -0.047994   0.006303
    10  C   -0.064246  -0.002174   0.334144   5.036059   0.511921  -0.025135
    11  C   -0.002191   0.001585  -0.047994   0.511921   4.893703   0.512509
    12  C   -0.000051  -0.000075   0.006303  -0.025135   0.512509   4.837120
    13  C   -0.000001   0.000006  -0.000081  -0.029728  -0.034312   0.539935
    14  C    0.000083  -0.000038   0.007070  -0.071591  -0.043941  -0.028320
    15  C    0.005478  -0.000649  -0.048188   0.425680  -0.012935  -0.043579
    16  F   -0.000518   0.000000   0.003032  -0.056401   0.002503  -0.000078
    17  H   -0.000004   0.000000   0.000000   0.000000   0.000000   0.000000
    18  H   -0.000008   0.000000   0.000001   0.000000   0.000000   0.000000
    19  H    0.000007   0.000000   0.000000   0.000000   0.000000   0.000000
    20  H    0.000021   0.000001   0.000004   0.000001   0.000000   0.000000
    21  H    0.004224  -0.000055   0.000532  -0.001098  -0.000005   0.000000
    22  H   -0.000045  -0.000001  -0.000031   0.000000   0.000000   0.000000
    23  H   -0.040016  -0.010774  -0.002874  -0.000339  -0.000007   0.000000
    24  H   -0.032311   0.005344  -0.008364   0.000342  -0.000014   0.000000
    25  H   -0.049545   0.354943  -0.011158  -0.002410  -0.000658   0.000041
    26  H   -0.042862   0.389816  -0.000919   0.004548   0.001651  -0.000036
    27  H   -0.025675   0.383171   0.003963   0.000158   0.000006   0.000001
    28  H   -0.049256  -0.010817   0.351660  -0.047488  -0.008851   0.000320
    29  H   -0.039214   0.005648   0.373198  -0.023972   0.003701  -0.000266
    30  H    0.000024  -0.000099  -0.010049  -0.040131   0.368841  -0.040799
    31  H    0.000001  -0.000001  -0.000157   0.004193  -0.037137   0.366396
    32  H    0.000000   0.000000   0.000004   0.000338   0.004727  -0.039154
    33  H    0.000004   0.000000  -0.000143   0.005997   0.000414   0.004724
             13         14         15         16         17         18
     1  C    0.000000   0.000000   0.000000   0.000000   0.392979   0.386621
     2  N    0.000000   0.000000  -0.000002   0.000008  -0.048881  -0.036457
     3  C    0.000000  -0.000005  -0.000053  -0.002182   0.002499   0.004231
     4  C    0.000000   0.000000  -0.000024   0.000042  -0.003413  -0.002726
     5  O    0.000000   0.000000   0.000000   0.000000   0.001112   0.010585
     6  C    0.000000   0.000004   0.000054  -0.000160  -0.000175   0.000334
     7  N   -0.000001   0.000083   0.005478  -0.000518  -0.000004  -0.000008
     8  C    0.000006  -0.000038  -0.000649   0.000000   0.000000   0.000000
     9  C   -0.000081   0.007070  -0.048188   0.003032   0.000000   0.000001
    10  C   -0.029728  -0.071591   0.425680  -0.056401   0.000000   0.000000
    11  C   -0.034312  -0.043941  -0.012935   0.002503   0.000000   0.000000
    12  C    0.539935  -0.028320  -0.043579  -0.000078   0.000000   0.000000
    13  C    4.831621   0.489984  -0.013994   0.002710   0.000000   0.000000
    14  C    0.489984   5.034891   0.473910  -0.046205   0.000000   0.000000
    15  C   -0.013994   0.473910   4.605801   0.309057   0.000000   0.000000
    16  F    0.002710  -0.046205   0.309057   9.060369   0.000000   0.000000
    17  H    0.000000   0.000000   0.000000   0.000000   0.610335  -0.034499
    18  H    0.000000   0.000000   0.000000   0.000000  -0.034499   0.551918
    19  H    0.000000   0.000000   0.000000   0.000000  -0.040753  -0.024826
    20  H    0.000000   0.000000  -0.000001   0.000004   0.000074   0.000269
    21  H   -0.000001   0.000060   0.000750   0.010509  -0.000299  -0.000109
    22  H    0.000000   0.000000  -0.000002   0.000014   0.000976  -0.000279
    23  H    0.000000   0.000000   0.000011  -0.000001   0.000015  -0.000016
    24  H    0.000000   0.000000   0.000039  -0.000017   0.000000  -0.000023
    25  H   -0.000004   0.000004   0.000152  -0.000002   0.000000   0.000000
    26  H    0.000007  -0.000054   0.000367   0.000012   0.000000   0.000000
    27  H    0.000000  -0.000001   0.000011   0.000000   0.000000   0.000003
    28  H   -0.000031  -0.000096   0.005587   0.000086   0.000000   0.000000
    29  H    0.000023  -0.000107  -0.009041   0.001950   0.000000   0.000000
    30  H    0.004750   0.000164   0.004152  -0.000018   0.000000   0.000000
    31  H   -0.040850   0.004599   0.000820   0.000001   0.000000   0.000000
    32  H    0.371101  -0.037730   0.003638  -0.000020   0.000000   0.000000
    33  H   -0.039453   0.356286  -0.033013  -0.000457   0.000000   0.000000
             19         20         21         22         23         24
     1  C    0.380394  -0.007414   0.002662   0.003285  -0.000159  -0.000211
     2  N   -0.033660  -0.026333  -0.038044  -0.048009   0.004271  -0.000529
     3  C   -0.007996   0.385416   0.375671   0.380665  -0.000235   0.001435
     4  C    0.004055   0.001839  -0.004318  -0.003860  -0.033016  -0.029540
     5  O    0.000483  -0.000076   0.000002   0.000051   0.001759   0.003623
     6  C   -0.000103   0.000074  -0.001846  -0.001044   0.347179   0.345322
     7  N    0.000007   0.000021   0.004224  -0.000045  -0.040016  -0.032311
     8  C    0.000000   0.000001  -0.000055  -0.000001  -0.010774   0.005344
     9  C    0.000000   0.000004   0.000532  -0.000031  -0.002874  -0.008364
    10  C    0.000000   0.000001  -0.001098   0.000000  -0.000339   0.000342
    11  C    0.000000   0.000000  -0.000005   0.000000  -0.000007  -0.000014
    12  C    0.000000   0.000000   0.000000   0.000000   0.000000   0.000000
    13  C    0.000000   0.000000  -0.000001   0.000000   0.000000   0.000000
    14  C    0.000000   0.000000   0.000060   0.000000   0.000000   0.000000
    15  C    0.000000  -0.000001   0.000750  -0.000002   0.000011   0.000039
    16  F    0.000000   0.000004   0.010509   0.000014  -0.000001  -0.000017
    17  H   -0.040753   0.000074  -0.000299   0.000976   0.000015   0.000000
    18  H   -0.024826   0.000269  -0.000109  -0.000279  -0.000016  -0.000023
    19  H    0.612013   0.003694   0.000889  -0.000345   0.000002  -0.000016
    20  H    0.003694   0.582059  -0.024540  -0.031848  -0.000006   0.000282
    21  H    0.000889  -0.024540   0.570848  -0.040208   0.000182  -0.001989
    22  H   -0.000345  -0.031848  -0.040208   0.622576   0.000232   0.001892
    23  H    0.000002  -0.000006   0.000182   0.000232   0.644688  -0.031807
    24  H   -0.000016   0.000282  -0.001989   0.001892  -0.031807   0.649990
    25  H    0.000000   0.000000   0.000011   0.000000   0.009131   0.000061
    26  H    0.000000   0.000000  -0.000005   0.000000  -0.000288  -0.000265
    27  H    0.000000   0.000000   0.000007  -0.000001   0.000276   0.000532
    28  H    0.000000   0.000000   0.000155  -0.000002   0.004383   0.001503
    29  H    0.000000  -0.000019   0.001103   0.000113  -0.000518   0.004169
    30  H    0.000000   0.000000   0.000000   0.000000   0.000006   0.000001
    31  H    0.000000   0.000000   0.000000   0.000000   0.000000   0.000000
    32  H    0.000000   0.000000   0.000000   0.000000   0.000000   0.000000
    33  H    0.000000   0.000000   0.000000   0.000000   0.000000   0.000000
             25         26         27         28         29         30
     1  C    0.000000   0.000000  -0.000006   0.000000   0.000004   0.000000
     2  N    0.000001   0.000014   0.000203   0.000001  -0.000017   0.000000
     3  C   -0.000002   0.000001  -0.000016  -0.000017   0.000262   0.000000
     4  C   -0.000114   0.000121   0.000636  -0.000205   0.000135   0.000000
     5  O    0.000092  -0.000006   0.011150   0.000001  -0.000002   0.000000
     6  C   -0.005840   0.005773  -0.008454  -0.004578  -0.007661  -0.000022
     7  N   -0.049545  -0.042862  -0.025675  -0.049256  -0.039214   0.000024
     8  C    0.354943   0.389816   0.383171  -0.010817   0.005648  -0.000099
     9  C   -0.011158  -0.000919   0.003963   0.351660   0.373198  -0.010049
    10  C   -0.002410   0.004548   0.000158  -0.047488  -0.023972  -0.040131
    11  C   -0.000658   0.001651   0.000006  -0.008851   0.003701   0.368841
    12  C    0.000041  -0.000036   0.000001   0.000320  -0.000266  -0.040799
    13  C   -0.000004   0.000007   0.000000  -0.000031   0.000023   0.004750
    14  C    0.000004  -0.000054  -0.000001  -0.000096  -0.000107   0.000164
    15  C    0.000152   0.000367   0.000011   0.005587  -0.009041   0.004152
    16  F   -0.000002   0.000012   0.000000   0.000086   0.001950  -0.000018
    17  H    0.000000   0.000000   0.000000   0.000000   0.000000   0.000000
    18  H    0.000000   0.000000   0.000003   0.000000   0.000000   0.000000
    19  H    0.000000   0.000000   0.000000   0.000000   0.000000   0.000000
    20  H    0.000000   0.000000   0.000000   0.000000  -0.000019   0.000000
    21  H    0.000011  -0.000005   0.000007   0.000155   0.001103   0.000000
    22  H    0.000000   0.000000  -0.000001  -0.000002   0.000113   0.000000
    23  H    0.009131  -0.000288   0.000276   0.004383  -0.000518   0.000006
    24  H    0.000061  -0.000265   0.000532   0.001503   0.004169   0.000001
    25  H    0.684731  -0.047064  -0.028949   0.017798  -0.000198   0.001187
    26  H   -0.047064   0.598809  -0.026324  -0.001336  -0.000013  -0.000092
    27  H   -0.028949  -0.026324   0.545439   0.000067  -0.000193  -0.000001
    28  H    0.017798  -0.001336   0.000067   0.697816  -0.044291   0.006878
    29  H   -0.000198  -0.000013  -0.000193  -0.044291   0.625916   0.000116
    30  H    0.001187  -0.000092  -0.000001   0.006878   0.000116   0.617996
    31  H    0.000001  -0.000004   0.000000  -0.000002   0.000003  -0.005450
    32  H    0.000000   0.000000   0.000000   0.000000   0.000000  -0.000190
    33  H    0.000000  -0.000001   0.000000   0.000003  -0.000001   0.000013
             31         32         33
     1  C    0.000000   0.000000   0.000000
     2  N    0.000000   0.000000   0.000000
     3  C    0.000000   0.000000   0.000000
     4  C    0.000000   0.000000   0.000000
     5  O    0.000000   0.000000   0.000000
     6  C    0.000000   0.000000   0.000000
     7  N    0.000001   0.000000   0.000004
     8  C   -0.000001   0.000000   0.000000
     9  C   -0.000157   0.000004  -0.000143
    10  C    0.004193   0.000338   0.005997
    11  C   -0.037137   0.004727   0.000414
    12  C    0.366396  -0.039154   0.004724
    13  C   -0.040850   0.371101  -0.039453
    14  C    0.004599  -0.037730   0.356286
    15  C    0.000820   0.003638  -0.033013
    16  F    0.000001  -0.000020  -0.000457
    17  H    0.000000   0.000000   0.000000
    18  H    0.000000   0.000000   0.000000
    19  H    0.000000   0.000000   0.000000
    20  H    0.000000   0.000000   0.000000
    21  H    0.000000   0.000000   0.000000
    22  H    0.000000   0.000000   0.000000
    23  H    0.000000   0.000000   0.000000
    24  H    0.000000   0.000000   0.000000
    25  H    0.000001   0.000000   0.000000
    26  H   -0.000004   0.000000  -0.000001
    27  H    0.000000   0.000000   0.000000
    28  H   -0.000002   0.000000   0.000003
    29  H    0.000003   0.000000  -0.000001
    30  H   -0.005450  -0.000190   0.000013
    31  H    0.624871  -0.005610  -0.000169
    32  H   -0.005610   0.614241  -0.006485
    33  H   -0.000169  -0.006485   0.611903
 Mulliken atomic charges:
              1
     1  C   -0.166852
     2  N   -0.451619
     3  C   -0.188817
     4  C    0.593589
     5  O   -0.512381
     6  C   -0.112451
     7  N   -0.407840
     8  C   -0.178740
     9  C   -0.081883
    10  C    0.035753
    11  C   -0.113490
    12  C   -0.089856
    13  C   -0.081681
    14  C   -0.138967
    15  C    0.325974
    16  F   -0.284235
    17  H    0.120035
    18  H    0.144982
    19  H    0.106163
    20  H    0.116498
    21  H    0.144911
    22  H    0.115871
    23  H    0.107923
    24  H    0.090551
    25  H    0.077792
    26  H    0.118150
    27  H    0.143999
    28  H    0.080712
    29  H    0.109169
    30  H    0.092725
    31  H    0.088496
    32  H    0.095140
    33  H    0.100377
 Sum of Mulliken atomic charges =   0.00000
 Mulliken charges with hydrogens summed into heavy atoms:
              1
     1  C    0.204328
     2  N   -0.451619
     3  C    0.188463
     4  C    0.593589
     5  O   -0.512381
     6  C    0.086024
     7  N   -0.407840
     8  C    0.161201
     9  C    0.107998
    10  C    0.035753
    11  C   -0.020764
    12  C   -0.001360
    13  C    0.013458
    14  C   -0.038590
    15  C    0.325974
    16  F   -0.284235
 Sum of Mulliken charges with hydrogens summed into heavy atoms =   0.00000
 Electronic spatial extent (au):  <R**2>=           4555.3021
 Charge=              0.0000 electrons
 Dipole moment (field-independent basis, Debye):
    X=             -2.0977    Y=             -1.5777    Z=              2.2384  Tot=              3.4496
 Quadrupole moment (field-independent basis, Debye-Ang):
   XX=            -91.0211   YY=            -90.4377   ZZ=            -94.6170
   XY=            -10.6700   XZ=              8.4458   YZ=              4.2054
 Traceless Quadrupole moment (field-independent basis, Debye-Ang):
   XX=              1.0042   YY=              1.5875   ZZ=             -2.5917
   XY=            -10.6700   XZ=              8.4458   YZ=              4.2054
 Octapole moment (field-independent basis, Debye-Ang**2):
  XXX=            -36.0670  YYY=            -16.8610  ZZZ=             -0.1362  XYY=             -2.5106
  XXY=            -44.3110  XXZ=              2.3333  XZZ=              8.6204  YZZ=             -7.5740
  YYZ=             -0.0032  XYZ=              2.4494
 Hexadecapole moment (field-independent basis, Debye-Ang**3):
 XXXX=          -4331.7648 YYYY=          -1065.3268 ZZZZ=           -420.9075 XXXY=           -130.5856
 XXXZ=            118.9863 YYYX=             -9.1885 YYYZ=              7.9160 ZZZX=             -8.3099
 ZZZY=             -4.3747 XXYY=           -899.1030 XXZZ=           -847.0401 YYZZ=           -250.7415
 XXYZ=             69.4874 YYXZ=             17.2112 ZZXY=             -2.2883
 N-N= 1.113736747933D+03 E-N=-3.979893203251D+03  KE= 7.448197774987D+02
 1\1\GINC-C02\SP\RB3LYP\6-31G(d,p)\C12H17F1N2O1\TUU61186\08-Jun-2026\0\
 \# b3lyp/6-31g(d,p)\\Generated by mdgx\\0,1\C,0,12.5939269,20.0794345,
 15.992244\N,0,12.3744522,18.6557745,15.6668963\C,0,11.9757733,17.80197
 26,16.8051455\C,0,12.4822017,18.1939849,14.3484029\O,0,12.7441096,18.9
 393223,13.4194972\C,0,12.272813,16.6886559,14.1006149\N,0,13.5464437,1
 5.9391088,14.2103818\C,0,14.2279232,15.9112094,12.8977085\C,0,13.38756
 85,14.6098198,14.8337859\C,0,14.7176884,14.0265062,15.2961353\C,0,15.2
 91285,12.9525219,14.5907785\C,0,16.5189683,12.4066919,14.9992409\C,0,1
 7.1852465,12.9302494,16.1174964\C,0,16.62285,14.0012843,16.8282902\C,0
 ,15.3941898,14.5465007,16.4192242\F,0,14.868522,15.5785866,17.1136466\
 H,0,11.6634296,20.6380881,15.8319913\H,0,13.3800144,20.4947135,15.3491
 606\H,0,12.9079189,20.1903635,17.0376887\H,0,12.039839,18.3581305,17.7
 487195\H,0,12.6381885,16.9307812,16.8655928\H,0,10.9412149,17.4645312,
 16.6655772\H,0,11.832391,16.5583346,13.1031051\H,0,11.5336443,16.30893
 67,14.8152661\H,0,13.8881596,15.0537164,12.3028667\H,0,15.3079985,15.7
 919879,13.0490992\H,0,14.0650085,16.8408984,12.3379475\H,0,12.9014877,
 13.9212998,14.1310398\H,0,12.7359122,14.6893493,15.7127835\H,0,14.7873
 017,12.5398714,13.7211702\H,0,16.9539157,11.5783169,14.4477185\H,0,18.
 1350831,12.5072826,16.4316529\H,0,17.1404302,14.4062742,17.6930317\\Ve
 rsion=EM64L-G09RevC.01\State=1-A\HF=-752.0817791\RMSD=6.652e-09\Dipole
 =-0.1313536,-1.0071341,0.9002036\Quadrupole=4.0384639,-1.8631132,-2.17
 53507,-2.362203,-2.0474108,9.6404994\PG=C01 [X(C12H17F1N2O1)]\\@


 NOBODY LOSES ALL THE TIME
 I HAD AN UNCLE NAMED
 SOL WHO WAS A BORN FAILURE AND
 NEARLY EVERYBODY SAID HE SHOULD HAVE GONE
 INTO VAUDEVILLE PERHAPS BECAUSE MY UNCLE SOL COULD
 SING MCCANN HE WAS A DIVER ON XMAS EVE LIKE HELL ITSELF WHICH
 MAY OR MAY NOT ACCOUNT FOR THE FACT THAT MY UNCLE
 SOL INDULGED IN THAT POSSIBLY MOST INEXCUSABLE
 OF ALL TO USE A HIGHFALOOTIN PHRASE
 LUXURIES THAT IS OR TO
 WIT FARMING AND BE
 IT NEEDLESSLY
 ADDED
 MY UNCLE SOL'S FARM
 FAILED BECAUSE THE CHICKENS
 ATE THE VEGETABLES SO
 MY UNCLE SOL HAD A
 CHICKEN FARM TILL THE
 SKUNKS ATE THE CHICKENS WHEN 
 MY UNCLE SOL
 HAD A SKUNK FARM BUT
 THE SKUNKS CAUGHT COLD AND
 DIED AND SO
 MY UNCLE SOL IMITATED THE
 SKUNKS IN A SUBTLE MANNER
 OR BY DROWNING HIMSELF IN THE WATERTANK
 BUT SOMEBODY WHO'D GIVEN MY UNCLE SOL A VICTOR
 VICTROLA AND RECORDS WHILE HE LIVED PRESENTED TO
 HIM UPON THE AUSPICIOUS OCCASION OF HIS DECEASE A
 SCRUMPTIOUS NOT TO MENTION SPLENDIFEROUS FUNERAL WITH
 TALL BOYS IN BLACK GLOVES AND FLOWERS AND EVERYTHING AND
 I REMEMBER WE ALL CRIED LIKE THE MISSOURI
 WHEN MY UNCLE SOL'S COFFIN LURCHED BECAUSE
 SOMEBODY PRESSED A BUTTON
 (AND DOWN WENT
 MY UNCLE
 SOL
 AND STARTED A WORM FARM)
           E. E. CUMMINGS
 Job cpu time:  0 days  0 hours  3 minutes 25.4 seconds.
 File lengths (MBytes):  RWF=     47 Int=      0 D2E=      0 Chk=      5 Scr=      1
 Normal termination of Gaussian 09 at Mon Jun  8 05:50:19 2026.
