 Entering Gaussian System, Link 0=/data/opt/apps/g09-C01/g09
 Initial command:
 /data/opt/apps/g09-C01/l1.exe /tmp/g09-tuu61186-38020e956b4d176x/Gau-38055.inp -scrdir=/tmp/g09-tuu61186-38020e956b4d176x/
 Entering Link 1 = /data/opt/apps/g09-C01/l1.exe PID=     38056.
  
 Copyright (c) 1988,1990,1992,1993,1995,1998,2003,2009,2011,
            Gaussian, Inc.  All Rights Reserved.
  
 This is part of the Gaussian(R) 09 program.  It is based on
 the Gaussian(R) 03 system (copyright 2003, Gaussian, Inc.),
 the Gaussian(R) 98 system (copyright 1998, Gaussian, Inc.),
 the Gaussian(R) 94 system (copyright 1995, Gaussian, Inc.),
 the Gaussian 92(TM) system (copyright 1992, Gaussian, Inc.),
 the Gaussian 90(TM) system (copyright 1990, Gaussian, Inc.),
 the Gaussian 88(TM) system (copyright 1988, Gaussian, Inc.),
 the Gaussian 86(TM) system (copyright 1986, Carnegie Mellon
 University), and the Gaussian 82(TM) system (copyright 1983,
 Carnegie Mellon University). Gaussian is a federally registered
 trademark of Gaussian, Inc.
  
 This software contains proprietary and confidential information,
 including trade secrets, belonging to Gaussian, Inc.
  
 This software is provided under written license and may be
 used, copied, transmitted, or stored only in accord with that
 written license.
  
 The following legend is applicable only to US Government
 contracts under FAR:
  
                    RESTRICTED RIGHTS LEGEND
  
 Use, reproduction and disclosure by the US Government is
 subject to restrictions as set forth in subparagraphs (a)
 and (c) of the Commercial Computer Software - Restricted
 Rights clause in FAR 52.227-19.
  
 Gaussian, Inc.
 340 Quinnipiac St., Bldg. 40, Wallingford CT 06492
  
  
 ---------------------------------------------------------------
 Warning -- This program may not be used in any manner that
 competes with the business of Gaussian, Inc. or will provide
 assistance to any competitor of Gaussian, Inc.  The licensee
 of this program is prohibited from giving any competitor of
 Gaussian, Inc. access to this program.  By using this program,
 the user acknowledges that Gaussian, Inc. is engaged in the
 business of creating and licensing software in the field of
 computational chemistry and represents and warrants to the
 licensee that it is not a competitor of Gaussian, Inc. and that
 it will not use this program in any manner prohibited above.
 ---------------------------------------------------------------
  

 Cite this work as:
 Gaussian 09, Revision C.01,
 M. J. Frisch, G. W. Trucks, H. B. Schlegel, G. E. Scuseria, 
 M. A. Robb, J. R. Cheeseman, G. Scalmani, V. Barone, B. Mennucci, 
 G. A. Petersson, H. Nakatsuji, M. Caricato, X. Li, H. P. Hratchian, 
 A. F. Izmaylov, J. Bloino, G. Zheng, J. L. Sonnenberg, M. Hada, 
 M. Ehara, K. Toyota, R. Fukuda, J. Hasegawa, M. Ishida, T. Nakajima, 
 Y. Honda, O. Kitao, H. Nakai, T. Vreven, J. A. Montgomery, Jr., 
 J. E. Peralta, F. Ogliaro, M. Bearpark, J. J. Heyd, E. Brothers, 
 K. N. Kudin, V. N. Staroverov, T. Keith, R. Kobayashi, J. Normand, 
 K. Raghavachari, A. Rendell, J. C. Burant, S. S. Iyengar, J. Tomasi, 
 M. Cossi, N. Rega, J. M. Millam, M. Klene, J. E. Knox, J. B. Cross, 
 V. Bakken, C. Adamo, J. Jaramillo, R. Gomperts, R. E. Stratmann, 
 O. Yazyev, A. J. Austin, R. Cammi, C. Pomelli, J. W. Ochterski, 
 R. L. Martin, K. Morokuma, V. G. Zakrzewski, G. A. Voth, 
 P. Salvador, J. J. Dannenberg, S. Dapprich, A. D. Daniels, 
 O. Farkas, J. B. Foresman, J. V. Ortiz, J. Cioslowski, 
 and D. J. Fox, Gaussian, Inc., Wallingford CT, 2010.
 
 ******************************************
 Gaussian 09:  EM64L-G09RevC.01 23-Sep-2011
                 8-Jun-2026 
 ******************************************
 %nprocshared=8
 Will use up to    8 processors via shared memory.
 %mem=14GB
 ------------------
 # b3lyp/6-31g(d,p)
 ------------------
 1/38=1/1;
 2/12=2,17=6,18=5,40=1/2;
 3/5=1,6=6,7=101,11=2,16=1,25=1,30=1,74=-5/1,2,3;
 4//1;
 5/5=2,38=5/2;
 6/7=2,8=2,9=2,10=2,28=1/1;
 99/5=1,9=1/99;
 -----------------
 Generated by mdgx
 -----------------
 Charge =  0 Multiplicity = 1
 Symbolic Z-Matrix:
 C                     13.08665   19.84063   16.30104 
 N                     12.55735   18.48904   16.02479 
 C                     11.66356   17.984    17.08446 
 C                     13.35783   17.50289   15.47325 
 O                     14.50577   17.35229   15.8443 
 C                     12.73467   16.76578   14.25841 
 N                     13.43409   15.54098   13.77865 
 C                     12.66337   15.01789   12.62516 
 C                     14.90885   15.5894   13.58297 
 C                     15.51273   14.53642   14.5172 
 C                     14.97152   13.23577   14.51817 
 C                     15.1995   12.36575   15.59235 
 C                     15.95859   12.78989   16.69037 
 C                     16.57381   14.04928   16.66578 
 C                     16.39204   14.89967   15.56168 
 F                     17.02574   16.09183   15.54467 
 H                     12.27566   20.49621   16.64371 
 H                     13.519    20.26947   15.3892 
 H                     13.85617   19.79342   17.08271 
 H                     11.35875   18.78554   17.7672 
 H                     12.19742   17.21952   17.66749 
 H                     10.77798   17.52097   16.63457 
 H                     12.67702   17.49023   13.43805 
 H                     11.70452   16.50472   14.52812 
 H                     13.10739   14.09718   12.22621 
 H                     12.64271   15.75464   11.81299 
 H                     11.628    14.8075   12.92348 
 H                     15.31673   16.58769   13.76903 
 H                     15.16864   15.3346   12.54816 
 H                     14.30795   12.91908   13.72155 
 H                     14.73913   11.38319   15.59589 
 H                     16.06987   12.14311   17.55528 
 H                     17.16291   14.37591   17.51702 
 
                          Input orientation:                          
 ---------------------------------------------------------------------
 Center     Atomic      Atomic             Coordinates (Angstroms)
 Number     Number       Type             X           Y           Z
 ---------------------------------------------------------------------
      1          6           0       13.086645   19.840630   16.301041
      2          7           0       12.557348   18.489044   16.024786
      3          6           0       11.663564   17.984000   17.084459
      4          6           0       13.357833   17.502888   15.473252
      5          8           0       14.505766   17.352289   15.844296
      6          6           0       12.734669   16.765779   14.258414
      7          7           0       13.434085   15.540984   13.778645
      8          6           0       12.663366   15.017893   12.625164
      9          6           0       14.908848   15.589398   13.582974
     10          6           0       15.512730   14.536416   14.517197
     11          6           0       14.971518   13.235774   14.518169
     12          6           0       15.199495   12.365754   15.592353
     13          6           0       15.958590   12.789892   16.690372
     14          6           0       16.573807   14.049282   16.665779
     15          6           0       16.392042   14.899672   15.561683
     16          9           0       17.025741   16.091833   15.544670
     17          1           0       12.275663   20.496213   16.643713
     18          1           0       13.518996   20.269473   15.389197
     19          1           0       13.856171   19.793419   17.082710
     20          1           0       11.358755   18.785542   17.767197
     21          1           0       12.197420   17.219522   17.667491
     22          1           0       10.777976   17.520968   16.634572
     23          1           0       12.677023   17.490225   13.438046
     24          1           0       11.704519   16.504719   14.528121
     25          1           0       13.107385   14.097180   12.226205
     26          1           0       12.642708   15.754637   11.812987
     27          1           0       11.628003   14.807496   12.923484
     28          1           0       15.316734   16.587690   13.769026
     29          1           0       15.168644   15.334603   12.548159
     30          1           0       14.307947   12.919081   13.721551
     31          1           0       14.739130   11.383186   15.595895
     32          1           0       16.069871   12.143111   17.555275
     33          1           0       17.162909   14.375908   17.517018
 ---------------------------------------------------------------------
                    Distance matrix (angstroms):
                    1          2          3          4          5
     1  C    0.000000
     2  N    1.477584   0.000000
     3  C    2.466978   1.475408   0.000000
     4  C    2.494757   1.384727   2.387049   0.000000
     5  O    2.900752   2.262990   3.164677   1.215774   0.000000
     6  C    3.708223   2.474097   3.258506   1.551610   2.448633
     7  N    4.997014   3.808527   4.475654   2.593564   2.948939
     8  C    6.078653   4.859790   5.448184   3.843057   4.382540
     9  C    5.364819   4.460936   5.341010   3.104874   2.895486
    10  C    6.099400   5.160463   5.769987   3.789140   3.271744
    11  C    7.096161   5.974526   6.330407   4.660947   4.349855
    12  C    7.800009   6.683010   6.803961   5.458576   5.040860
    13  C    7.623159   6.670217   6.751394   5.518846   4.862305
    14  C    6.770011   6.021155   6.306171   4.867444   3.982648
    15  C    5.990439   5.272849   5.847258   3.998872   3.106966
    16  F    5.490178   5.093493   5.891026   3.930614   2.833513
    17  H    1.097681   2.119231   2.623002   3.391321   3.936583
    18  H    1.096491   2.121005   3.397047   2.772549   3.113004
    19  H    1.097909   2.123096   2.842802   2.843453   2.813318
    20  H    2.499686   2.135540   1.096133   3.302074   3.956696
    21  H    3.086765   2.107064   1.099707   2.498307   2.944509
    22  H    3.289685   2.115461   1.095930   2.829249   3.814369
    23  H    3.726786   2.775462   3.816706   2.146096   3.025454
    24  H    4.022663   2.627712   2.953780   2.150130   3.208999
    25  H    7.042154   5.832686   6.387067   4.712206   5.063772
    26  H    6.085642   5.022302   5.806651   4.118898   4.719632
    27  H    6.234417   4.902607   5.234993   4.093747   4.825830
    28  H    4.686791   4.039531   5.127127   2.753047   2.355637
    29  H    6.222790   5.371806   6.315292   4.066530   3.921095
    30  H    7.486867   6.276462   6.629880   4.998245   4.919198
    31  H    8.646173   7.445626   7.432744   6.274853   5.978826
    32  H    8.350122   7.412900   7.331656   6.357451   5.701702
    33  H    6.925150   6.352624   6.591527   5.332315   4.326343
                    6          7          8          9         10
     6  C    0.000000
     7  N    1.489793   0.000000
     8  C    2.393260   1.482616   0.000000
     9  C    2.562644   1.488474   2.507230   0.000000
    10  C    3.571365   2.423918   3.454053   1.531737   0.000000
    11  C    4.187111   2.867855   3.476634   2.533390   1.408752
    12  C    5.216798   4.060578   4.719110   3.809719   2.442509
    13  C    5.667078   4.734954   5.687566   4.312206   2.823443
    14  C    5.283346   4.518691   5.705815   3.827236   2.445320
    15  C    4.307812   3.512835   4.747646   2.567270   1.412832
    16  F    4.530117   4.040083   5.357907   2.929493   2.400880
    17  H    4.451570   5.839935   6.805221   6.354417   7.107732
    18  H    3.764267   4.995967   5.995921   5.205500   6.132153
    19  H    4.289641   5.401685   6.640643   5.570465   6.079649
    20  H    4.275995   5.544609   6.506741   6.350293   6.772967
    21  H    3.480851   4.412477   5.521715   5.166471   5.302329
    22  H    3.169398   4.373965   5.088755   5.487013   5.984039
    23  H    1.095970   2.118653   2.602573   2.935165   4.234477
    24  H    1.096404   2.117049   2.598323   3.463934   4.286818
    25  H    3.374938   2.145081   1.097284   2.704219   3.350710
    26  H    2.647825   2.129727   1.096745   2.880199   4.127207
    27  H    2.615649   2.128670   1.097834   3.436603   4.207673
    28  H    2.634060   2.154078   3.288319   1.094337   2.192236
    29  H    3.301131   2.136676   2.526391   1.096930   2.152349
    30  H    4.190526   2.764285   2.883006   2.740597   2.168023
    31  H    5.897375   4.721528   5.132751   4.666141   3.421243
    32  H    6.584977   5.723272   6.646400   5.385540   3.907459
    33  H    5.994938   5.407121   6.677444   4.693618   3.427503
                   11         12         13         14         15
    11  C    0.000000
    12  C    1.400992   0.000000
    13  C    2.427259   1.400630   0.000000
    14  C    2.800242   2.423890   1.401842   0.000000
    15  C    2.423915   2.800687   2.431665   1.405429   0.000000
    16  F    3.664779   4.149833   3.654348   2.373425   1.350226
    17  H    8.031161   8.703937   8.541283   7.748383   7.031119
    18  H    7.234738   8.082952   7.974259   7.046439   6.092528
    19  H    7.129066   7.693887   7.322806   6.368241   5.717773
    20  H    7.376189   7.790694   7.633208   7.130361   6.730398
    21  H    5.786545   6.072703   5.892605   5.496055   5.235551
    22  H    6.358289   6.871120   7.016050   6.756126   6.288086
    23  H    4.952952   6.104434   6.590861   6.119092   5.002217
    24  H    4.621621   5.520732   6.047511   5.857364   5.061353
    25  H    3.077355   4.325010   5.455929   5.632778   4.749566
    26  H    4.368757   5.683775   6.601036   6.473899   5.370399
    27  H    4.023981   5.083357   6.083926   6.248251   5.446527
    28  H    3.451917   4.600328   4.834203   4.051535   2.686878
    29  H    2.885287   4.252309   4.925191   4.536665   3.281340
    30  H    1.084076   2.144977   3.399295   3.883291   3.413543
    31  H    2.155824   1.085075   2.159580   3.408630   3.885738
    32  H    3.409443   2.158747   1.085710   2.163017   3.417138
    33  H    3.885253   3.405884   2.156195   1.085510   2.166079
                   16         17         18         19         20
    16  F    0.000000
    17  H    6.570365   0.000000
    18  H    5.456566   1.780757   0.000000
    19  H    5.110136   1.784556   1.791172   0.000000
    20  H    6.656608   2.242618   3.538866   2.778745   0.000000
    21  H    5.393583   3.433795   4.029812   3.117430   1.779247
    22  H    6.501145   3.330951   4.076570   3.852291   1.794238
    23  H    5.030380   4.412862   3.498589   4.469750   4.707146
    24  H    5.433162   4.553455   4.266983   4.687331   3.976596
    25  H    5.508571   7.820086   6.947743   7.522862   7.465991
    26  H    5.766293   6.778876   5.825881   6.749387   6.803493
    27  H    6.136425   6.827962   6.284010   6.864642   6.273666
    28  H    2.513860   5.726123   4.405943   4.836367   6.039993
    29  H    3.605729   7.196187   5.928387   6.493518   7.325475
    30  H    4.558126   8.371507   7.578373   7.665377   7.712350
    31  H    5.234746   9.498097   8.972042   8.586167   8.422373
    32  H    4.533059   9.219613   8.788436   7.978157   8.146251
    33  H    2.617894   7.880733   7.248436   6.361805   7.293535
                   21         22         23         24         25
    21  H    0.000000
    22  H    1.781183   0.000000
    23  H    4.265150   3.718212   0.000000
    24  H    3.257228   2.515627   1.762172   0.000000
    25  H    6.339136   6.048319   3.628570   3.614290   0.000000
    26  H    6.051395   5.463042   2.377868   2.968968   1.770265
    27  H    5.352355   4.675216   2.926132   2.336938   1.783064
    28  H    5.032630   5.448181   2.809304   3.692046   3.669354
    29  H    6.211976   6.384115   3.412738   4.158074   2.425625
    30  H    6.206332   6.490281   4.861651   4.503908   2.250628
    31  H    6.694372   7.378480   6.797391   6.048067   4.624193
    32  H    6.385798   7.600867   7.553451   6.873396   6.402632
    33  H    5.724060   7.171992   6.816169   6.577184   6.672155
                   26         27         28         29         30
    26  H    0.000000
    27  H    1.777613   0.000000
    28  H    3.416208   4.182196   0.000000
    29  H    2.664068   3.599284   1.755754   0.000000
    30  H    3.802107   3.374185   3.805075   2.819999   0.000000
    31  H    6.149387   5.342920   5.545984   5.008680   2.461312
    32  H    7.600160   6.948570   5.887035   6.005751   4.289982
    33  H    7.407366   7.205692   4.727345   5.439278   4.967768
                   31         32         33
    31  H    0.000000
    32  H    2.487474   0.000000
    33  H    4.303696   2.486278   0.000000
 Stoichiometry    C12H17FN2O
 Framework group  C1[X(C12H17FN2O)]
 Deg. of freedom    93
 Full point group                 C1      NOp   1
 Largest Abelian subgroup         C1      NOp   1
 Largest concise Abelian subgroup C1      NOp   1
                         Standard orientation:                         
 ---------------------------------------------------------------------
 Center     Atomic      Atomic             Coordinates (Angstroms)
 Number     Number       Type             X           Y           Z
 ---------------------------------------------------------------------
      1          6           0        4.078783   -1.228348   -0.469813
      2          7           0        3.208654   -0.356287    0.346056
      3          6           0        3.364185   -0.569611    1.797652
      4          6           0        1.901435   -0.093670   -0.027682
      5          8           0        1.188980   -0.976604   -0.464651
      6          6           0        1.511593    1.408085   -0.011901
      7          7           0        0.065721    1.733394   -0.163923
      8          6           0       -0.059814    3.210002   -0.118974
      9          6           0       -0.707769    1.066545   -1.246780
     10          6           0       -1.830808    0.278374   -0.565761
     11          6           0       -2.626880    0.923752    0.400850
     12          6           0       -3.381208    0.181763    1.319120
     13          6           0       -3.337202   -1.217973    1.295301
     14          6           0       -2.617742   -1.874153    0.286855
     15          6           0       -1.907492   -1.128547   -0.669623
     16          9           0       -1.253588   -1.782809   -1.653219
     17          1           0        5.096209   -1.231024   -0.057817
     18          1           0        4.121982   -0.858560   -1.501163
     19          1           0        3.694201   -2.256691   -0.466498
     20          1           0        4.261079   -1.158383    2.022235
     21          1           0        2.488729   -1.118761    2.173639
     22          1           0        3.414365    0.396693    2.312240
     23          1           0        2.075004    1.894766   -0.816177
     24          1           0        1.873721    1.829583    0.933247
     25          1           0       -1.106024    3.529714   -0.204191
     26          1           0        0.494653    3.666608   -0.947785
     27          1           0        0.350104    3.598094    0.822616
     28          1           0       -0.075855    0.427390   -1.871072
     29          1           0       -1.154562    1.811961   -1.916098
     30          1           0       -2.605385    2.003565    0.494461
     31          1           0       -3.954532    0.695338    2.083926
     32          1           0       -3.860567   -1.790195    2.055181
     33          1           0       -2.585787   -2.959047    0.269040
 ---------------------------------------------------------------------
 Rotational constants (GHZ):      0.7521786      0.3407826      0.2900487
 Standard basis: 6-31G(d,p) (6D, 7F)
 There are   325 symmetry adapted basis functions of A   symmetry.
 Integral buffers will be    131072 words long.
 Raffenetti 2 integral format.
 Two-electron integral symmetry is turned on.
   325 basis functions,   567 primitive gaussians,   325 cartesian basis functions
    60 alpha electrons       60 beta electrons
       nuclear repulsion energy      1130.9902736435 Hartrees.
 NAtoms=   33 NActive=   33 NUniq=   33 SFac= 1.00D+00 NAtFMM=   60 NAOKFM=F Big=F
 One-electron integrals computed using PRISM.
 NBasis=   325 RedAO= T  NBF=   325
 NBsUse=   325 1.00D-06 NBFU=   325
 Harris functional with IExCor=  402 diagonalized for initial guess.
 ExpMin= 1.61D-01 ExpMax= 7.00D+03 ExpMxC= 1.05D+03 IAcc=1 IRadAn=         1 AccDes= 0.00D+00
 HarFok:  IExCor=  402 AccDes= 0.00D+00 IRadAn=         1 IDoV= 1
 ScaDFX=  1.000000  1.000000  1.000000  1.000000
 FoFCou: FMM=F IPFlag=           0 FMFlag=      100000 FMFlg1=           0
         NFxFlg=           0 DoJE=T BraDBF=F KetDBF=T FulRan=T
         Omega=  0.000000  0.000000  1.000000  0.000000  0.000000 ICntrl=     500 IOpCl=  0
         NMat0=    1 NMatS0=    1 NMatT0=    0 NMatD0=    1 NMtDS0=    0 NMtDT0=    0
         I1Cent=           4 NGrid=           0.
 Petite list used in FoFCou.
 Initial guess orbital symmetries:
       Occupied  (A) (A) (A) (A) (A) (A) (A) (A) (A) (A) (A) (A)
                 (A) (A) (A) (A) (A) (A) (A) (A) (A) (A) (A) (A)
                 (A) (A) (A) (A) (A) (A) (A) (A) (A) (A) (A) (A)
                 (A) (A) (A) (A) (A) (A) (A) (A) (A) (A) (A) (A)
                 (A) (A) (A) (A) (A) (A) (A) (A) (A) (A) (A) (A)
       Virtual   (A) (A) (A) (A) (A) (A) (A) (A) (A) (A) (A) (A)
                 (A) (A) (A) (A) (A) (A) (A) (A) (A) (A) (A) (A)
                 (A) (A) (A) (A) (A) (A) (A) (A) (A) (A) (A) (A)
                 (A) (A) (A) (A) (A) (A) (A) (A) (A) (A) (A) (A)
                 (A) (A) (A) (A) (A) (A) (A) (A) (A) (A) (A) (A)
                 (A) (A) (A) (A) (A) (A) (A) (A) (A) (A) (A) (A)
                 (A) (A) (A) (A) (A) (A) (A) (A) (A) (A) (A) (A)
                 (A) (A) (A) (A) (A) (A) (A) (A) (A) (A) (A) (A)
                 (A) (A) (A) (A) (A) (A) (A) (A) (A) (A) (A) (A)
                 (A) (A) (A) (A) (A) (A) (A) (A) (A) (A) (A) (A)
                 (A) (A) (A) (A) (A) (A) (A) (A) (A) (A) (A) (A)
                 (A) (A) (A) (A) (A) (A) (A) (A) (A) (A) (A) (A)
                 (A) (A) (A) (A) (A) (A) (A) (A) (A) (A) (A) (A)
                 (A) (A) (A) (A) (A) (A) (A) (A) (A) (A) (A) (A)
                 (A) (A) (A) (A) (A) (A) (A) (A) (A) (A) (A) (A)
                 (A) (A) (A) (A) (A) (A) (A) (A) (A) (A) (A) (A)
                 (A) (A) (A) (A) (A) (A) (A) (A) (A) (A) (A) (A)
                 (A) (A) (A) (A) (A) (A) (A) (A) (A) (A) (A) (A)
                 (A) (A) (A) (A) (A) (A) (A) (A) (A) (A) (A) (A)
                 (A) (A) (A) (A) (A) (A) (A) (A) (A) (A) (A) (A)
                 (A) (A) (A) (A) (A) (A) (A) (A) (A) (A) (A) (A)
                 (A) (A) (A) (A) (A) (A) (A) (A) (A) (A) (A) (A)
                 (A)
 The electronic state of the initial guess is 1-A.
 Requested convergence on RMS density matrix=1.00D-08 within 128 cycles.
 Requested convergence on MAX density matrix=1.00D-06.
 Requested convergence on             energy=1.00D-06.
 No special actions if energy rises.
 Keep R1 ints in memory in canonical form, NReq=1421145172.
 Integral accuracy reduced to 1.0D-05 until final iterations.
 Initial convergence to 1.0D-05 achieved.  Increase integral accuracy.
 SCF Done:  E(RB3LYP) =  -752.040867588     A.U. after   14 cycles
             Convg  =    0.7065D-08             -V/T =  2.0096

 **********************************************************************

            Population analysis using the SCF density.

 **********************************************************************

 Orbital symmetries:
       Occupied  (A) (A) (A) (A) (A) (A) (A) (A) (A) (A) (A) (A)
                 (A) (A) (A) (A) (A) (A) (A) (A) (A) (A) (A) (A)
                 (A) (A) (A) (A) (A) (A) (A) (A) (A) (A) (A) (A)
                 (A) (A) (A) (A) (A) (A) (A) (A) (A) (A) (A) (A)
                 (A) (A) (A) (A) (A) (A) (A) (A) (A) (A) (A) (A)
       Virtual   (A) (A) (A) (A) (A) (A) (A) (A) (A) (A) (A) (A)
                 (A) (A) (A) (A) (A) (A) (A) (A) (A) (A) (A) (A)
                 (A) (A) (A) (A) (A) (A) (A) (A) (A) (A) (A) (A)
                 (A) (A) (A) (A) (A) (A) (A) (A) (A) (A) (A) (A)
                 (A) (A) (A) (A) (A) (A) (A) (A) (A) (A) (A) (A)
                 (A) (A) (A) (A) (A) (A) (A) (A) (A) (A) (A) (A)
                 (A) (A) (A) (A) (A) (A) (A) (A) (A) (A) (A) (A)
                 (A) (A) (A) (A) (A) (A) (A) (A) (A) (A) (A) (A)
                 (A) (A) (A) (A) (A) (A) (A) (A) (A) (A) (A) (A)
                 (A) (A) (A) (A) (A) (A) (A) (A) (A) (A) (A) (A)
                 (A) (A) (A) (A) (A) (A) (A) (A) (A) (A) (A) (A)
                 (A) (A) (A) (A) (A) (A) (A) (A) (A) (A) (A) (A)
                 (A) (A) (A) (A) (A) (A) (A) (A) (A) (A) (A) (A)
                 (A) (A) (A) (A) (A) (A) (A) (A) (A) (A) (A) (A)
                 (A) (A) (A) (A) (A) (A) (A) (A) (A) (A) (A) (A)
                 (A) (A) (A) (A) (A) (A) (A) (A) (A) (A) (A) (A)
                 (A) (A) (A) (A) (A) (A) (A) (A) (A) (A) (A) (A)
                 (A) (A) (A) (A) (A) (A) (A) (A) (A) (A) (A) (A)
                 (A) (A) (A) (A) (A) (A) (A) (A) (A) (A) (A) (A)
                 (A) (A) (A) (A) (A) (A) (A) (A) (A) (A) (A) (A)
                 (A) (A) (A) (A) (A) (A) (A) (A) (A) (A) (A) (A)
                 (A) (A) (A) (A) (A) (A) (A) (A) (A) (A) (A) (A)
                 (A)
 The electronic state is 1-A.
 Alpha  occ. eigenvalues --  -24.68635 -19.13484 -14.33654 -14.32508 -10.29337
 Alpha  occ. eigenvalues --  -10.25581 -10.22323 -10.22081 -10.21619 -10.20799
 Alpha  occ. eigenvalues --  -10.20721 -10.18581 -10.18233 -10.18116 -10.18032
 Alpha  occ. eigenvalues --  -10.17693  -1.19600  -1.04827  -0.91878  -0.90585
 Alpha  occ. eigenvalues --   -0.83760  -0.75888  -0.73144  -0.72760  -0.71391
 Alpha  occ. eigenvalues --   -0.68846  -0.67237  -0.61243  -0.59545  -0.57519
 Alpha  occ. eigenvalues --   -0.53359  -0.51862  -0.49397  -0.48301  -0.47772
 Alpha  occ. eigenvalues --   -0.46807  -0.46549  -0.45015  -0.44950  -0.44160
 Alpha  occ. eigenvalues --   -0.42797  -0.42531  -0.41050  -0.40741  -0.40429
 Alpha  occ. eigenvalues --   -0.40197  -0.39195  -0.37947  -0.37630  -0.36970
 Alpha  occ. eigenvalues --   -0.36558  -0.34931  -0.34268  -0.33360  -0.32064
 Alpha  occ. eigenvalues --   -0.26021  -0.23601  -0.22183  -0.22021  -0.20157
 Alpha virt. eigenvalues --   -0.01428   0.00333   0.01885   0.07453   0.09323
 Alpha virt. eigenvalues --    0.10249   0.11937   0.12806   0.13489   0.13654
 Alpha virt. eigenvalues --    0.14362   0.14957   0.15225   0.15636   0.16512
 Alpha virt. eigenvalues --    0.16550   0.17073   0.17705   0.18461   0.19060
 Alpha virt. eigenvalues --    0.19968   0.20359   0.21972   0.22606   0.23390
 Alpha virt. eigenvalues --    0.24414   0.26564   0.27856   0.28426   0.31651
 Alpha virt. eigenvalues --    0.32913   0.34405   0.36174   0.37221   0.37909
 Alpha virt. eigenvalues --    0.48814   0.49831   0.50618   0.50976   0.51906
 Alpha virt. eigenvalues --    0.52881   0.53592   0.54075   0.54453   0.55757
 Alpha virt. eigenvalues --    0.56080   0.57146   0.57996   0.59038   0.60017
 Alpha virt. eigenvalues --    0.60482   0.61354   0.61826   0.61872   0.62579
 Alpha virt. eigenvalues --    0.63023   0.63312   0.66370   0.67242   0.67733
 Alpha virt. eigenvalues --    0.69361   0.70653   0.71692   0.73490   0.76130
 Alpha virt. eigenvalues --    0.77128   0.78000   0.79368   0.79942   0.81868
 Alpha virt. eigenvalues --    0.82301   0.83117   0.83342   0.83911   0.84020
 Alpha virt. eigenvalues --    0.85733   0.86292   0.87613   0.88242   0.89432
 Alpha virt. eigenvalues --    0.89932   0.90319   0.91123   0.91897   0.92362
 Alpha virt. eigenvalues --    0.93661   0.94365   0.95637   0.97312   0.97754
 Alpha virt. eigenvalues --    0.98007   0.99188   0.99294   1.01568   1.02843
 Alpha virt. eigenvalues --    1.06468   1.07627   1.08004   1.11058   1.14885
 Alpha virt. eigenvalues --    1.15441   1.18084   1.19664   1.21761   1.23451
 Alpha virt. eigenvalues --    1.27092   1.29169   1.30023   1.30951   1.34018
 Alpha virt. eigenvalues --    1.34466   1.35846   1.37557   1.39445   1.41632
 Alpha virt. eigenvalues --    1.42056   1.43161   1.45208   1.45984   1.46539
 Alpha virt. eigenvalues --    1.50816   1.51462   1.54194   1.56660   1.59266
 Alpha virt. eigenvalues --    1.62386   1.64939   1.67217   1.69372   1.72831
 Alpha virt. eigenvalues --    1.74613   1.75666   1.76815   1.78690   1.78949
 Alpha virt. eigenvalues --    1.81070   1.82782   1.84336   1.85694   1.85874
 Alpha virt. eigenvalues --    1.87064   1.89107   1.89394   1.89602   1.90368
 Alpha virt. eigenvalues --    1.92008   1.93050   1.93722   1.94218   1.95183
 Alpha virt. eigenvalues --    1.95794   1.97274   1.98224   2.00182   2.00706
 Alpha virt. eigenvalues --    2.00992   2.02204   2.02897   2.03257   2.03886
 Alpha virt. eigenvalues --    2.04681   2.05269   2.06365   2.07366   2.08277
 Alpha virt. eigenvalues --    2.09179   2.10619   2.11596   2.13257   2.14280
 Alpha virt. eigenvalues --    2.15672   2.20945   2.24077   2.26717   2.27273
 Alpha virt. eigenvalues --    2.28473   2.29513   2.30449   2.32431   2.32852
 Alpha virt. eigenvalues --    2.33901   2.35268   2.37118   2.38901   2.39854
 Alpha virt. eigenvalues --    2.40813   2.41887   2.43221   2.44550   2.45082
 Alpha virt. eigenvalues --    2.46382   2.49866   2.51183   2.51993   2.52971
 Alpha virt. eigenvalues --    2.54468   2.55733   2.56332   2.56917   2.59519
 Alpha virt. eigenvalues --    2.61081   2.61337   2.63291   2.63954   2.65555
 Alpha virt. eigenvalues --    2.66365   2.67658   2.70840   2.71263   2.72146
 Alpha virt. eigenvalues --    2.76696   2.77912   2.78489   2.79496   2.81635
 Alpha virt. eigenvalues --    2.84547   2.84971   2.85581   2.88017   2.88641
 Alpha virt. eigenvalues --    2.89571   2.91955   2.93429   2.95360   3.00340
 Alpha virt. eigenvalues --    3.04035   3.05753   3.07613   3.14000   3.14310
 Alpha virt. eigenvalues --    3.17693   3.18526   3.19910   3.21472   3.25215
 Alpha virt. eigenvalues --    3.29643   3.30640   3.34577   3.37049   3.39744
 Alpha virt. eigenvalues --    3.40760   3.41425   3.43596   3.45473   3.46284
 Alpha virt. eigenvalues --    3.47927   3.48786   3.50673   3.84518   4.02515
 Alpha virt. eigenvalues --    4.11489   4.13559   4.14751   4.16762   4.21555
 Alpha virt. eigenvalues --    4.35556   4.41157   4.44026   4.45066   4.49920
 Alpha virt. eigenvalues --    4.51105   4.60153   4.64920   4.79911   5.51573
          Condensed to atoms (all electrons):
              1          2          3          4          5          6
     1  C    4.779241   0.292703  -0.047648  -0.022725   0.002917   0.005460
     2  N    0.292703   7.094455   0.293751   0.238810  -0.102857  -0.118535
     3  C   -0.047648   0.293751   4.807676  -0.030437  -0.002477  -0.000400
     4  C   -0.022725   0.238810  -0.030437   4.511900   0.556981   0.327363
     5  O    0.002917  -0.102857  -0.002477   0.556981   8.038526  -0.082649
     6  C    0.005460  -0.118535  -0.000400   0.327363  -0.082649   5.041369
     7  N   -0.000060   0.003053  -0.000054  -0.026419   0.000495   0.269055
     8  C    0.000002  -0.000115  -0.000002   0.003787   0.000035  -0.045722
     9  C    0.000002   0.000105  -0.000005  -0.004418  -0.002149  -0.034777
    10  C    0.000001  -0.000012   0.000000   0.000605  -0.001305   0.004827
    11  C    0.000000  -0.000001   0.000000  -0.000090  -0.000071   0.000466
    12  C    0.000000   0.000000   0.000000   0.000004   0.000013  -0.000004
    13  C    0.000000   0.000000   0.000000   0.000000  -0.000014  -0.000004
    14  C    0.000000   0.000000   0.000000   0.000032  -0.000574  -0.000005
    15  C    0.000000   0.000018  -0.000001   0.000378   0.004185   0.000108
    16  F    0.000000  -0.000002   0.000000   0.000010   0.000631   0.000016
    17  H    0.388154  -0.032715  -0.008326   0.004011   0.000181  -0.000147
    18  H    0.391702  -0.038074   0.004434  -0.000052   0.000049   0.000184
    19  H    0.376856  -0.053473   0.001268  -0.004729   0.006601   0.000111
    20  H   -0.006640  -0.026690   0.389532   0.001716  -0.000099  -0.000172
    21  H    0.001142  -0.055620   0.383265  -0.006457   0.006065   0.000489
    22  H    0.004320  -0.050212   0.386790   0.003753  -0.000257   0.000067
    23  H   -0.000796   0.005279   0.000314  -0.039058  -0.001730   0.350083
    24  H    0.000097   0.002306   0.000345  -0.016884   0.002430   0.365263
    25  H    0.000000   0.000001   0.000000  -0.000122   0.000004   0.004595
    26  H    0.000000   0.000009   0.000001  -0.000186  -0.000010  -0.012321
    27  H    0.000000  -0.000002  -0.000003   0.000192   0.000003  -0.001597
    28  H   -0.000006  -0.000005   0.000008   0.000596   0.008432  -0.006233
    29  H    0.000000   0.000008   0.000000   0.000333   0.000436   0.001694
    30  H    0.000000   0.000000   0.000000  -0.000003  -0.000002   0.000003
    31  H    0.000000   0.000000   0.000000   0.000000   0.000000   0.000000
    32  H    0.000000   0.000000   0.000000   0.000000   0.000000   0.000000
    33  H    0.000000   0.000000   0.000000   0.000002   0.000011   0.000000
              7          8          9         10         11         12
     1  C   -0.000060   0.000002   0.000002   0.000001   0.000000   0.000000
     2  N    0.003053  -0.000115   0.000105  -0.000012  -0.000001   0.000000
     3  C   -0.000054  -0.000002  -0.000005   0.000000   0.000000   0.000000
     4  C   -0.026419   0.003787  -0.004418   0.000605  -0.000090   0.000004
     5  O    0.000495   0.000035  -0.002149  -0.001305  -0.000071   0.000013
     6  C    0.269055  -0.045722  -0.034777   0.004827   0.000466  -0.000004
     7  N    6.952675   0.309614   0.287278  -0.084481  -0.003168  -0.000384
     8  C    0.309614   4.811295  -0.038129   0.001129  -0.000110   0.000072
     9  C    0.287278  -0.038129   4.930362   0.344455  -0.059372   0.005481
    10  C   -0.084481   0.001129   0.344455   5.003046   0.492950  -0.023350
    11  C   -0.003168  -0.000110  -0.059372   0.492950   4.881093   0.529778
    12  C   -0.000384   0.000072   0.005481  -0.023350   0.529778   4.827242
    13  C    0.000026  -0.000003   0.000109  -0.032332  -0.035674   0.539417
    14  C   -0.000100   0.000004   0.006474  -0.069326  -0.040952  -0.031555
    15  C   -0.000179  -0.000140  -0.040356   0.460738  -0.012358  -0.042107
    16  F    0.000078   0.000000  -0.004480  -0.047035   0.002739  -0.000052
    17  H    0.000000   0.000000   0.000000   0.000000   0.000000   0.000000
    18  H   -0.000017   0.000000  -0.000004   0.000000   0.000000   0.000000
    19  H    0.000008   0.000000   0.000001   0.000000   0.000000   0.000000
    20  H    0.000001   0.000000   0.000000   0.000000   0.000000   0.000000
    21  H    0.000110   0.000000  -0.000004   0.000003   0.000000   0.000000
    22  H   -0.000147   0.000005   0.000001   0.000000   0.000000   0.000000
    23  H   -0.051664  -0.007607  -0.004821  -0.000571   0.000015   0.000000
    24  H   -0.042563  -0.003661   0.004973  -0.000142  -0.000042   0.000001
    25  H   -0.035001   0.386566  -0.001249   0.000691  -0.001128   0.000036
    26  H   -0.050231   0.360538  -0.007054  -0.000605   0.000159  -0.000002
    27  H   -0.039580   0.386543   0.004908   0.000098  -0.000219  -0.000006
    28  H   -0.028164   0.002993   0.369274  -0.033144   0.004421  -0.000130
    29  H   -0.039608  -0.009768   0.357399  -0.041882  -0.003101  -0.000117
    30  H    0.000300  -0.000701  -0.008733  -0.042193   0.366688  -0.040019
    31  H    0.000015   0.000001  -0.000175   0.004323  -0.039258   0.365456
    32  H    0.000000   0.000000   0.000006   0.000418   0.004956  -0.040729
    33  H    0.000003   0.000000  -0.000154   0.006298   0.000317   0.004965
             13         14         15         16         17         18
     1  C    0.000000   0.000000   0.000000   0.000000   0.388154   0.391702
     2  N    0.000000   0.000000   0.000018  -0.000002  -0.032715  -0.038074
     3  C    0.000000   0.000000  -0.000001   0.000000  -0.008326   0.004434
     4  C    0.000000   0.000032   0.000378   0.000010   0.004011  -0.000052
     5  O   -0.000014  -0.000574   0.004185   0.000631   0.000181   0.000049
     6  C   -0.000004  -0.000005   0.000108   0.000016  -0.000147   0.000184
     7  N    0.000026  -0.000100  -0.000179   0.000078   0.000000  -0.000017
     8  C   -0.000003   0.000004  -0.000140   0.000000   0.000000   0.000000
     9  C    0.000109   0.006474  -0.040356  -0.004480   0.000000  -0.000004
    10  C   -0.032332  -0.069326   0.460738  -0.047035   0.000000   0.000000
    11  C   -0.035674  -0.040952  -0.012358   0.002739   0.000000   0.000000
    12  C    0.539417  -0.031555  -0.042107  -0.000052   0.000000   0.000000
    13  C    4.842942   0.491110  -0.013322   0.002880   0.000000   0.000000
    14  C    0.491110   5.034041   0.472560  -0.044158   0.000000   0.000000
    15  C   -0.013322   0.472560   4.578202   0.290931   0.000000   0.000000
    16  F    0.002880  -0.044158   0.290931   9.083926   0.000000   0.000000
    17  H    0.000000   0.000000   0.000000   0.000000   0.602386  -0.027801
    18  H    0.000000   0.000000   0.000000   0.000000  -0.027801   0.587336
    19  H    0.000000   0.000000   0.000000   0.000000  -0.041653  -0.036609
    20  H    0.000000   0.000000   0.000000   0.000000   0.003368   0.000269
    21  H    0.000000   0.000002  -0.000001   0.000000  -0.000464  -0.000325
    22  H    0.000000   0.000000   0.000000   0.000000   0.000739  -0.000170
    23  H    0.000000   0.000000  -0.000010   0.000000  -0.000016   0.000364
    24  H    0.000001   0.000000  -0.000008   0.000000   0.000001  -0.000031
    25  H    0.000000   0.000000   0.000000   0.000000   0.000000   0.000000
    26  H    0.000000   0.000000  -0.000002   0.000000   0.000000   0.000000
    27  H    0.000000   0.000000   0.000011   0.000000   0.000000   0.000000
    28  H   -0.000033   0.000328  -0.007523   0.008079   0.000000   0.000032
    29  H    0.000001  -0.000261   0.002338   0.000090   0.000000   0.000000
    30  H    0.005004   0.000284   0.004047  -0.000018   0.000000   0.000000
    31  H   -0.042023   0.004721   0.000792   0.000001   0.000000   0.000000
    32  H    0.368618  -0.038268   0.003693  -0.000020   0.000000   0.000000
    33  H   -0.041595   0.356237  -0.033583  -0.000828   0.000000   0.000000
             19         20         21         22         23         24
     1  C    0.376856  -0.006640   0.001142   0.004320  -0.000796   0.000097
     2  N   -0.053473  -0.026690  -0.055620  -0.050212   0.005279   0.002306
     3  C    0.001268   0.389532   0.383265   0.386790   0.000314   0.000345
     4  C   -0.004729   0.001716  -0.006457   0.003753  -0.039058  -0.016884
     5  O    0.006601  -0.000099   0.006065  -0.000257  -0.001730   0.002430
     6  C    0.000111  -0.000172   0.000489   0.000067   0.350083   0.365263
     7  N    0.000008   0.000001   0.000110  -0.000147  -0.051664  -0.042563
     8  C    0.000000   0.000000   0.000000   0.000005  -0.007607  -0.003661
     9  C    0.000001   0.000000  -0.000004   0.000001  -0.004821   0.004973
    10  C    0.000000   0.000000   0.000003   0.000000  -0.000571  -0.000142
    11  C    0.000000   0.000000   0.000000   0.000000   0.000015  -0.000042
    12  C    0.000000   0.000000   0.000000   0.000000   0.000000   0.000001
    13  C    0.000000   0.000000   0.000000   0.000000   0.000000   0.000001
    14  C    0.000000   0.000000   0.000002   0.000000   0.000000   0.000000
    15  C    0.000000   0.000000  -0.000001   0.000000  -0.000010  -0.000008
    16  F    0.000000   0.000000   0.000000   0.000000   0.000000   0.000000
    17  H   -0.041653   0.003368  -0.000464   0.000739  -0.000016   0.000001
    18  H   -0.036609   0.000269  -0.000325  -0.000170   0.000364  -0.000031
    19  H    0.628399   0.000193   0.003372  -0.000514  -0.000004  -0.000009
    20  H    0.000193   0.575269  -0.029381  -0.027167  -0.000017   0.000010
    21  H    0.003372  -0.029381   0.620807  -0.045467   0.000012  -0.000081
    22  H   -0.000514  -0.027167  -0.045467   0.609177   0.000037   0.001355
    23  H   -0.000004  -0.000017   0.000012   0.000037   0.667039  -0.045998
    24  H   -0.000009   0.000010  -0.000081   0.001355  -0.045998   0.611101
    25  H    0.000000   0.000000   0.000000   0.000000  -0.000396   0.000230
    26  H    0.000000   0.000000   0.000000   0.000000   0.017980  -0.002521
    27  H    0.000000   0.000000   0.000000   0.000000  -0.002450   0.005774
    28  H   -0.000012   0.000000  -0.000007   0.000001   0.003017   0.000090
    29  H    0.000000   0.000000   0.000000   0.000000   0.001297  -0.000228
    30  H    0.000000   0.000000   0.000000   0.000000   0.000003   0.000003
    31  H    0.000000   0.000000   0.000000   0.000000   0.000000   0.000000
    32  H    0.000000   0.000000   0.000000   0.000000   0.000000   0.000000
    33  H    0.000000   0.000000   0.000000   0.000000   0.000000   0.000000
             25         26         27         28         29         30
     1  C    0.000000   0.000000   0.000000  -0.000006   0.000000   0.000000
     2  N    0.000001   0.000009  -0.000002  -0.000005   0.000008   0.000000
     3  C    0.000000   0.000001  -0.000003   0.000008   0.000000   0.000000
     4  C   -0.000122  -0.000186   0.000192   0.000596   0.000333  -0.000003
     5  O    0.000004  -0.000010   0.000003   0.008432   0.000436  -0.000002
     6  C    0.004595  -0.012321  -0.001597  -0.006233   0.001694   0.000003
     7  N   -0.035001  -0.050231  -0.039580  -0.028164  -0.039608   0.000300
     8  C    0.386566   0.360538   0.386543   0.002993  -0.009768  -0.000701
     9  C   -0.001249  -0.007054   0.004908   0.369274   0.357399  -0.008733
    10  C    0.000691  -0.000605   0.000098  -0.033144  -0.041882  -0.042193
    11  C   -0.001128   0.000159  -0.000219   0.004421  -0.003101   0.366688
    12  C    0.000036  -0.000002  -0.000006  -0.000130  -0.000117  -0.040019
    13  C    0.000000   0.000000   0.000000  -0.000033   0.000001   0.005004
    14  C    0.000000   0.000000   0.000000   0.000328  -0.000261   0.000284
    15  C    0.000000  -0.000002   0.000011  -0.007523   0.002338   0.004047
    16  F    0.000000   0.000000   0.000000   0.008079   0.000090  -0.000018
    17  H    0.000000   0.000000   0.000000   0.000000   0.000000   0.000000
    18  H    0.000000   0.000000   0.000000   0.000032   0.000000   0.000000
    19  H    0.000000   0.000000   0.000000  -0.000012   0.000000   0.000000
    20  H    0.000000   0.000000   0.000000   0.000000   0.000000   0.000000
    21  H    0.000000   0.000000   0.000000  -0.000007   0.000000   0.000000
    22  H    0.000000   0.000000   0.000000   0.000001   0.000000   0.000000
    23  H   -0.000396   0.017980  -0.002450   0.003017   0.001297   0.000003
    24  H    0.000230  -0.002521   0.005774   0.000090  -0.000228   0.000003
    25  H    0.604175  -0.041419  -0.025989  -0.000129   0.000480   0.002712
    26  H   -0.041419   0.691391  -0.047032   0.000830   0.006441   0.000000
    27  H   -0.025989  -0.047032   0.611724  -0.000254   0.000082   0.000305
    28  H   -0.000129   0.000830  -0.000254   0.578344  -0.029779   0.000039
    29  H    0.000480   0.006441   0.000082  -0.029779   0.658176   0.001693
    30  H    0.002712   0.000000   0.000305   0.000039   0.001693   0.639552
    31  H   -0.000003   0.000000   0.000000   0.000002   0.000002  -0.006177
    32  H    0.000000   0.000000   0.000000   0.000000   0.000000  -0.000211
    33  H    0.000000   0.000000   0.000000  -0.000003   0.000003   0.000013
             31         32         33
     1  C    0.000000   0.000000   0.000000
     2  N    0.000000   0.000000   0.000000
     3  C    0.000000   0.000000   0.000000
     4  C    0.000000   0.000000   0.000002
     5  O    0.000000   0.000000   0.000011
     6  C    0.000000   0.000000   0.000000
     7  N    0.000015   0.000000   0.000003
     8  C    0.000001   0.000000   0.000000
     9  C   -0.000175   0.000006  -0.000154
    10  C    0.004323   0.000418   0.006298
    11  C   -0.039258   0.004956   0.000317
    12  C    0.365456  -0.040729   0.004965
    13  C   -0.042023   0.368618  -0.041595
    14  C    0.004721  -0.038268   0.356237
    15  C    0.000792   0.003693  -0.033583
    16  F    0.000001  -0.000020  -0.000828
    17  H    0.000000   0.000000   0.000000
    18  H    0.000000   0.000000   0.000000
    19  H    0.000000   0.000000   0.000000
    20  H    0.000000   0.000000   0.000000
    21  H    0.000000   0.000000   0.000000
    22  H    0.000000   0.000000   0.000000
    23  H    0.000000   0.000000   0.000000
    24  H    0.000000   0.000000   0.000000
    25  H   -0.000003   0.000000   0.000000
    26  H    0.000000   0.000000   0.000000
    27  H    0.000000   0.000000   0.000000
    28  H    0.000002   0.000000  -0.000003
    29  H    0.000002   0.000000   0.000003
    30  H   -0.006177  -0.000211   0.000013
    31  H    0.641149  -0.005813  -0.000179
    32  H   -0.005813   0.629932  -0.006742
    33  H   -0.000179  -0.006742   0.622932
 Mulliken atomic charges:
              1
     1  C   -0.164724
     2  N   -0.452185
     3  C   -0.178030
     4  C    0.501109
     5  O   -0.433801
     6  C   -0.068587
     7  N   -0.420892
     8  C   -0.156628
     9  C   -0.104950
    10  C    0.056794
    11  C   -0.088039
    12  C   -0.094010
    13  C   -0.085106
    14  C   -0.140593
    15  C    0.331591
    16  F   -0.292786
    17  H    0.112281
    18  H    0.118713
    19  H    0.120195
    20  H    0.119810
    21  H    0.122541
    22  H    0.117692
    23  H    0.109698
    24  H    0.118185
    25  H    0.105945
    26  H    0.084032
    27  H    0.107495
    28  H    0.128935
    29  H    0.094272
    30  H    0.077412
    31  H    0.077167
    32  H    0.084162
    33  H    0.092301
 Sum of Mulliken atomic charges =   0.00000
 Mulliken charges with hydrogens summed into heavy atoms:
              1
     1  C    0.186465
     2  N   -0.452185
     3  C    0.182013
     4  C    0.501109
     5  O   -0.433801
     6  C    0.159296
     7  N   -0.420892
     8  C    0.140845
     9  C    0.118256
    10  C    0.056794
    11  C   -0.010627
    12  C   -0.016843
    13  C   -0.000944
    14  C   -0.048291
    15  C    0.331591
    16  F   -0.292786
 Sum of Mulliken charges with hydrogens summed into heavy atoms =   0.00000
 Electronic spatial extent (au):  <R**2>=           4125.7732
 Charge=              0.0000 electrons
 Dipole moment (field-independent basis, Debye):
    X=              2.5801    Y=              1.8754    Z=              1.4600  Tot=              3.5079
 Quadrupole moment (field-independent basis, Debye-Ang):
   XX=            -84.7835   YY=            -89.8428   ZZ=            -91.9750
   XY=             -2.4443   XZ=             -0.6970   YZ=             -3.6526
 Traceless Quadrupole moment (field-independent basis, Debye-Ang):
   XX=              4.0836   YY=             -0.9757   ZZ=             -3.1079
   XY=             -2.4443   XZ=             -0.6970   YZ=             -3.6526
 Octapole moment (field-independent basis, Debye-Ang**2):
  XXX=             58.0230  YYY=             -7.4703  ZZZ=             -9.2016  XYY=             -4.0642
  XXY=            -22.0067  XXZ=             16.8221  XZZ=              9.0930  YZZ=             -2.1290
  YYZ=              3.5992  XYZ=              2.4133
 Hexadecapole moment (field-independent basis, Debye-Ang**3):
 XXXX=          -3405.9016 YYYY=          -1287.9228 ZZZZ=           -620.8610 XXXY=            -80.5174
 XXXZ=            -16.6457 YYYX=             14.3268 YYYZ=             20.3839 ZZZX=              9.6214
 ZZZY=             17.3045 XXYY=           -768.4821 XXZZ=           -634.3706 YYZZ=           -327.3959
 XXYZ=            -10.3241 YYXZ=             -0.9708 ZZXY=             -0.9912
 N-N= 1.130990273643D+03 E-N=-4.015083403784D+03  KE= 7.449135518388D+02
 1\1\GINC-C04\SP\RB3LYP\6-31G(d,p)\C12H17F1N2O1\TUU61186\08-Jun-2026\0\
 \# b3lyp/6-31g(d,p)\\Generated by mdgx\\0,1\C,0,13.086645,19.8406299,1
 6.301041\N,0,12.557348,18.4890444,16.0247859\C,0,11.6635639,17.9839997
 ,17.0844594\C,0,13.3578325,17.502888,15.4732519\O,0,14.5057664,17.3522
 89,15.8442963\C,0,12.734669,16.7657788,14.258414\N,0,13.4340852,15.540
 9842,13.7786454\C,0,12.6633664,15.0178931,12.6251642\C,0,14.9088477,15
 .5893978,13.5829738\C,0,15.5127301,14.536416,14.5171967\C,0,14.9715182
 ,13.2357738,14.5181692\C,0,15.1994953,12.3657539,15.5923527\C,0,15.958
 5902,12.7898915,16.690372\C,0,16.5738071,14.0492817,16.6657791\C,0,16.
 3920421,14.8996721,15.5616827\F,0,17.025741,16.0918327,15.5446697\H,0,
 12.2756634,20.4962128,16.6437125\H,0,13.5189957,20.2694725,15.3891972\
 H,0,13.8561705,19.7934189,17.0827098\H,0,11.3587545,18.7855415,17.7671
 965\H,0,12.1974195,17.2195216,17.667491\H,0,10.777976,17.5209679,16.63
 45717\H,0,12.6770225,17.4902251,13.4380456\H,0,11.7045193,16.5047191,1
 4.528121\H,0,13.1073852,14.0971802,12.2262052\H,0,12.6427079,15.754637
 4,11.8129874\H,0,11.628003,14.8074961,12.9234844\H,0,15.3167335,16.587
 6903,13.7690257\H,0,15.1686437,15.3346032,12.5481589\H,0,14.3079474,12
 .9190814,13.7215513\H,0,14.7391304,11.3831858,15.5958947\H,0,16.069870
 7,12.1431113,17.5552751\H,0,17.1629086,14.3759083,17.5170179\\Version=
 EM64L-G09RevC.01\State=1-A\HF=-752.0408676\RMSD=7.065e-09\Dipole=-1.31
 95276,0.3772574,-0.1458478\Quadrupole=-3.6102174,2.0826391,1.5275783,-
 2.6449486,-0.5337518,1.1637981\PG=C01 [X(C12H17F1N2O1)]\\@


 IF YOU DON'T HAVE THE LAW - ARGUE THE FACTS.
 IF YOU DON'T HAVE THE FACTS - ARGUE THE LAW.
 IF YOU DON'T HAVE EITHER - POUND THE TABLE.
 Job cpu time:  0 days  0 hours  2 minutes 49.1 seconds.
 File lengths (MBytes):  RWF=     47 Int=      0 D2E=      0 Chk=      5 Scr=      1
 Normal termination of Gaussian 09 at Mon Jun  8 05:50:15 2026.
