 Entering Gaussian System, Link 0=/data/opt/apps/g09-C01/g09
 Initial command:
 /data/opt/apps/g09-C01/l1.exe /tmp/g09-tuu61186-120607e956b4d176x/Gau-120748.inp -scrdir=/tmp/g09-tuu61186-120607e956b4d176x/
 Entering Link 1 = /data/opt/apps/g09-C01/l1.exe PID=    120751.
  
 Copyright (c) 1988,1990,1992,1993,1995,1998,2003,2009,2011,
            Gaussian, Inc.  All Rights Reserved.
  
 This is part of the Gaussian(R) 09 program.  It is based on
 the Gaussian(R) 03 system (copyright 2003, Gaussian, Inc.),
 the Gaussian(R) 98 system (copyright 1998, Gaussian, Inc.),
 the Gaussian(R) 94 system (copyright 1995, Gaussian, Inc.),
 the Gaussian 92(TM) system (copyright 1992, Gaussian, Inc.),
 the Gaussian 90(TM) system (copyright 1990, Gaussian, Inc.),
 the Gaussian 88(TM) system (copyright 1988, Gaussian, Inc.),
 the Gaussian 86(TM) system (copyright 1986, Carnegie Mellon
 University), and the Gaussian 82(TM) system (copyright 1983,
 Carnegie Mellon University). Gaussian is a federally registered
 trademark of Gaussian, Inc.
  
 This software contains proprietary and confidential information,
 including trade secrets, belonging to Gaussian, Inc.
  
 This software is provided under written license and may be
 used, copied, transmitted, or stored only in accord with that
 written license.
  
 The following legend is applicable only to US Government
 contracts under FAR:
  
                    RESTRICTED RIGHTS LEGEND
  
 Use, reproduction and disclosure by the US Government is
 subject to restrictions as set forth in subparagraphs (a)
 and (c) of the Commercial Computer Software - Restricted
 Rights clause in FAR 52.227-19.
  
 Gaussian, Inc.
 340 Quinnipiac St., Bldg. 40, Wallingford CT 06492
  
  
 ---------------------------------------------------------------
 Warning -- This program may not be used in any manner that
 competes with the business of Gaussian, Inc. or will provide
 assistance to any competitor of Gaussian, Inc.  The licensee
 of this program is prohibited from giving any competitor of
 Gaussian, Inc. access to this program.  By using this program,
 the user acknowledges that Gaussian, Inc. is engaged in the
 business of creating and licensing software in the field of
 computational chemistry and represents and warrants to the
 licensee that it is not a competitor of Gaussian, Inc. and that
 it will not use this program in any manner prohibited above.
 ---------------------------------------------------------------
  

 Cite this work as:
 Gaussian 09, Revision C.01,
 M. J. Frisch, G. W. Trucks, H. B. Schlegel, G. E. Scuseria, 
 M. A. Robb, J. R. Cheeseman, G. Scalmani, V. Barone, B. Mennucci, 
 G. A. Petersson, H. Nakatsuji, M. Caricato, X. Li, H. P. Hratchian, 
 A. F. Izmaylov, J. Bloino, G. Zheng, J. L. Sonnenberg, M. Hada, 
 M. Ehara, K. Toyota, R. Fukuda, J. Hasegawa, M. Ishida, T. Nakajima, 
 Y. Honda, O. Kitao, H. Nakai, T. Vreven, J. A. Montgomery, Jr., 
 J. E. Peralta, F. Ogliaro, M. Bearpark, J. J. Heyd, E. Brothers, 
 K. N. Kudin, V. N. Staroverov, T. Keith, R. Kobayashi, J. Normand, 
 K. Raghavachari, A. Rendell, J. C. Burant, S. S. Iyengar, J. Tomasi, 
 M. Cossi, N. Rega, J. M. Millam, M. Klene, J. E. Knox, J. B. Cross, 
 V. Bakken, C. Adamo, J. Jaramillo, R. Gomperts, R. E. Stratmann, 
 O. Yazyev, A. J. Austin, R. Cammi, C. Pomelli, J. W. Ochterski, 
 R. L. Martin, K. Morokuma, V. G. Zakrzewski, G. A. Voth, 
 P. Salvador, J. J. Dannenberg, S. Dapprich, A. D. Daniels, 
 O. Farkas, J. B. Foresman, J. V. Ortiz, J. Cioslowski, 
 and D. J. Fox, Gaussian, Inc., Wallingford CT, 2010.
 
 ******************************************
 Gaussian 09:  EM64L-G09RevC.01 23-Sep-2011
                 8-Jun-2026 
 ******************************************
 %nprocshared=8
 Will use up to    8 processors via shared memory.
 %mem=14GB
 ------------------
 # b3lyp/6-31g(d,p)
 ------------------
 1/38=1/1;
 2/12=2,17=6,18=5,40=1/2;
 3/5=1,6=6,7=101,11=2,16=1,25=1,30=1,74=-5/1,2,3;
 4//1;
 5/5=2,38=5/2;
 6/7=2,8=2,9=2,10=2,28=1/1;
 99/5=1,9=1/99;
 -----------------
 Generated by mdgx
 -----------------
 Charge =  0 Multiplicity = 1
 Symbolic Z-Matrix:
 C                     13.13092   19.78617   16.47099 
 N                     12.7049   18.43417   16.06665 
 C                     12.08848   17.66536   17.16847 
 C                     13.48141   17.66846   15.21855 
 O                     14.64451   17.97446   15.04334 
 C                     12.68129   16.83927   14.16117 
 N                     13.37928   15.66376   13.54268 
 C                     12.694    15.06796   12.35503 
 C                     14.86223   15.57928   13.49529 
 C                     15.33169   14.52798   14.54012 
 C                     14.91195   13.17517   14.58717 
 C                     15.16549   12.38601   15.7375 
 C                     15.79057   12.9369   16.86823 
 C                     16.19879   14.26776   16.84095 
 C                     16.00231   15.03321   15.68871 
 F                     16.4694   16.29296   15.72369 
 H                     12.26373   20.34227   16.84625 
 H                     13.55639   20.31433   15.60923 
 H                     13.88908   19.71907   17.26414 
 H                     11.81666   18.32187   18.00341 
 H                     12.80629   16.91771   17.54044 
 H                     11.1986   17.14037   16.80454 
 H                     12.18989   17.49508   13.42745 
 H                     11.87507   16.39297   14.75508 
 H                     13.25505   14.21827   11.95552 
 H                     12.63904   15.81808   11.54722 
 H                     11.66758   14.74925   12.56208 
 H                     15.39294   16.52967   13.50422 
 H                     15.14762   15.12641   12.53451 
 H                     14.35974   12.73524   13.76292 
 H                     14.84377   11.3497   15.77745 
 H                     15.95585   12.34574   17.7657 
 H                     16.66137   14.71959   17.71523 
 
                          Input orientation:                          
 ---------------------------------------------------------------------
 Center     Atomic      Atomic             Coordinates (Angstroms)
 Number     Number       Type             X           Y           Z
 ---------------------------------------------------------------------
      1          6           0       13.130924   19.786168   16.470987
      2          7           0       12.704897   18.434169   16.066649
      3          6           0       12.088485   17.665357   17.168469
      4          6           0       13.481405   17.668463   15.218553
      5          8           0       14.644512   17.974459   15.043340
      6          6           0       12.681291   16.839271   14.161171
      7          7           0       13.379278   15.663759   13.542679
      8          6           0       12.694003   15.067962   12.355031
      9          6           0       14.862228   15.579284   13.495286
     10          6           0       15.331688   14.527984   14.540121
     11          6           0       14.911954   13.175174   14.587166
     12          6           0       15.165486   12.386009   15.737495
     13          6           0       15.790568   12.936904   16.868229
     14          6           0       16.198790   14.267759   16.840945
     15          6           0       16.002311   15.033210   15.688708
     16          9           0       16.469404   16.292957   15.723691
     17          1           0       12.263731   20.342270   16.846251
     18          1           0       13.556392   20.314331   15.609233
     19          1           0       13.889083   19.719066   17.264137
     20          1           0       11.816660   18.321866   18.003414
     21          1           0       12.806290   16.917708   17.540444
     22          1           0       11.198595   17.140374   16.804536
     23          1           0       12.189895   17.495082   13.427445
     24          1           0       11.875072   16.392974   14.755079
     25          1           0       13.255049   14.218266   11.955518
     26          1           0       12.639042   15.818083   11.547218
     27          1           0       11.667584   14.749247   12.562084
     28          1           0       15.392936   16.529674   13.504221
     29          1           0       15.147617   15.126409   12.534506
     30          1           0       14.359741   12.735239   13.762916
     31          1           0       14.843769   11.349698   15.777446
     32          1           0       15.955854   12.345740   17.765704
     33          1           0       16.661367   14.719586   17.715229
 ---------------------------------------------------------------------
                    Distance matrix (angstroms):
                    1          2          3          4          5
     1  C    0.000000
     2  N    1.474073   0.000000
     3  C    2.463941   1.478190   0.000000
     4  C    2.485177   1.381498   2.396333   0.000000
     5  O    2.758879   2.240670   3.338412   1.215381   0.000000
     6  C    3.771157   2.484975   3.174536   1.563905   2.433334
     7  N    5.062699   3.807937   4.338075   2.614922   3.031853
     8  C    6.276421   5.010746   5.502935   3.947450   4.413526
     9  C    5.435999   4.406399   5.053477   3.039899   2.860199
    10  C    6.018314   4.948595   5.222038   3.707616   3.550159
    11  C    7.101133   5.892113   5.898885   4.757600   4.828329
    12  C    7.709722   6.537819   6.275917   5.568639   5.655444
    13  C    7.358256   6.354826   6.012806   5.517365   5.479109
    14  C    6.324675   5.492339   5.342804   4.645549   4.403044
    15  C    5.607801   4.752084   4.943271   3.677033   3.303190
    16  F    4.889420   4.344412   4.812828   3.327960   2.573045
    17  H    1.096402   2.107904   2.701926   3.358776   3.811186
    18  H    1.096630   2.114068   3.406323   2.675607   2.641825
    19  H    1.099270   2.118309   2.732952   2.924994   2.923400
    20  H    2.493954   2.133691   1.096369   3.309647   4.108464
    21  H    3.078504   2.117075   1.101176   2.531915   3.275869
    22  H    3.293232   2.118332   1.095426   2.829389   3.958769
    23  H    3.923997   2.848246   3.746270   2.214978   2.977594
    24  H    4.004406   2.564235   2.736595   2.102852   3.202185
    25  H    7.169825   5.914211   6.357528   4.754207   5.057098
    26  H    6.342802   5.222403   5.942558   4.196687   4.571076
    27  H    6.541518   5.190052   5.468056   4.343800   5.041897
    28  H    4.952085   4.173570   5.063189   2.808865   2.239739
    29  H    6.424662   5.420718   6.105585   4.054924   3.828675
    30  H    7.652401   6.365806   6.407999   5.217954   5.400926
    31  H    8.636485   7.405953   7.029516   6.488080   6.668289
    32  H    8.063280   7.108056   6.603904   6.398613   6.388533
    33  H    6.299399   5.671824   5.466970   5.004140   4.669143
                    6          7          8          9         10
     6  C    0.000000
     7  N    1.500516   0.000000
     8  C    2.529790   1.495020   0.000000
     9  C    2.605275   1.486109   2.502565   0.000000
    10  C    3.536983   2.469165   3.467503   1.554768   0.000000
    11  C    4.310793   3.103724   3.672108   2.640913   1.417211
    12  C    5.337375   4.330289   4.974150   3.913626   2.459550
    13  C    5.676640   4.930450   5.873592   4.384146   2.856956
    14  C    5.115336   4.558182   5.748677   3.834049   2.472524
    15  C    4.077303   3.447221   4.696756   2.531618   1.422758
    16  F    4.133972   3.834264   5.205971   2.838685   2.410469
    17  H    4.433398   5.834938   6.940786   6.377083   6.966815
    18  H    3.865065   5.092135   6.233613   5.347397   6.146257
    19  H    4.402315   5.527627   6.867336   5.682345   6.037276
    20  H    4.208148   5.422680   6.577374   6.092656   6.224416
    21  H    3.382494   4.228809   5.506603   4.730916   4.592423
    22  H    3.045723   4.192312   5.131201   5.177870   5.388377
    23  H    1.099960   2.186700   2.700946   3.288807   4.462351
    24  H    1.096311   2.065020   2.861212   3.342495   3.933521
    25  H    3.473293   2.150340   1.093785   2.608884   3.329944
    26  H    2.806663   2.133924   1.103750   2.965560   4.227548
    27  H    2.820085   2.174350   1.094526   3.430099   4.169802
    28  H    2.807214   2.192283   3.277419   1.088564   2.254684
    29  H    3.415069   2.105274   2.460864   1.099837   2.101068
    30  H    4.451840   3.096132   3.193496   2.900467   2.182353
    31  H    6.117522   5.074449   5.491803   4.806037   3.445365
    32  H    6.626253   5.956670   6.879356   5.467018   3.944129
    33  H    5.741550   5.392007   6.677803   4.667322   3.447617
                   11         12         13         14         15
    11  C    0.000000
    12  C    1.417857   0.000000
    13  C    2.456010   1.404554   0.000000
    14  C    2.815885   2.413773   1.392324   0.000000
    15  C    2.419623   2.776748   2.414664   1.397200   0.000000
    16  F    3.665775   4.118814   3.610246   2.328715   1.344009
    17  H    7.967673   8.541172   8.202348   7.237707   6.595681
    18  H    7.338238   8.090978   7.810445   6.712705   5.820573
    19  H    7.143876   7.598261   7.054794   5.935536   5.376333
    20  H    6.909416   7.182160   6.788107   6.081955   5.804550
    21  H    5.211740   5.417816   5.020417   4.361260   4.146663
    22  H    5.867586   6.283215   6.225707   5.766731   5.362919
    23  H    5.236045   6.347685   6.751358   6.175665   5.070369
    24  H    4.427763   5.277096   5.633910   5.249945   4.444629
    25  H    3.280083   4.616307   5.674987   5.703986   4.706197
    26  H    4.625190   5.976661   6.822497   6.564972   5.392545
    27  H    4.135771   5.282373   6.231090   6.250786   5.352222
    28  H    3.557637   4.712664   4.937880   4.110887   2.717118
    29  H    2.841878   4.215359   4.897804   4.515270   3.269278
    30  H    1.085297   2.161053   3.425041   3.899357   3.418682
    31  H    2.180316   1.085836   2.146034   3.388539   3.862429
    32  H    3.446852   2.177138   1.087315   2.146707   3.396846
    33  H    3.902618   3.405094   2.157233   1.087426   2.153950
                   16         17         18         19         20
    16  F    0.000000
    17  H    5.945147   0.000000
    18  H    4.966909   1.789404   0.000000
    19  H    4.557330   1.790191   1.789897   0.000000
    20  H    5.564318   2.370851   3.567729   2.606460   0.000000
    21  H    4.136340   3.536086   3.978602   3.016023   1.779148
    22  H    5.446812   3.374670   4.130613   3.754945   1.793108
    23  H    5.003204   4.449737   3.817810   4.749058   4.665015
    24  H    4.696392   4.485643   4.351259   4.627580   3.778322
    25  H    5.369874   7.899709   7.113539   7.670869   7.448861
    26  H    5.686836   6.977741   6.128437   7.033024   6.973357
    27  H    5.952838   7.070459   6.619885   7.193293   6.511060
    28  H    2.478077   5.957934   4.703998   5.154684   6.020335
    29  H    3.644016   7.356164   6.237025   6.711618   7.156478
    30  H    4.577409   8.471548   7.841995   7.826487   7.460528
    31  H    5.203978   9.416226   9.058161   8.553830   7.920193
    32  H    4.473708   8.855600   8.596872   7.673920   7.273480
    33  H    2.545303   7.190891   6.736265   5.734444   6.044059
                   21         22         23         24         25
    21  H    0.000000
    22  H    1.782084   0.000000
    23  H    4.198817   3.537405   0.000000
    24  H    2.983416   2.283966   1.753957   0.000000
    25  H    6.219306   6.023345   3.746818   3.804107   0.000000
    26  H    6.095565   5.609165   2.559162   3.347316   1.762268
    27  H    5.548238   4.892426   2.925964   2.748476   1.780424
    28  H    4.809616   5.371920   3.346248   3.736134   3.508795
    29  H    5.809474   6.154997   3.893080   4.152672   2.177560
    30  H    5.846022   6.216873   5.241839   4.531776   2.585807
    31  H    6.185647   6.919114   7.094455   5.940794   5.035856
    32  H    5.556382   6.822306   7.714833   6.488200   6.675249
    33  H    4.441161   6.044125   6.788411   5.871229   6.710334
                   26         27         28         29         30
    26  H    0.000000
    27  H    1.765246   0.000000
    28  H    3.452557   4.235067   0.000000
    29  H    2.783181   3.500521   1.723276   0.000000
    30  H    4.168219   3.570145   3.941085   2.801327   0.000000
    31  H    6.536216   5.655409   5.683422   4.987237   2.492456
    32  H    7.856715   7.158475   5.998534   5.979197   4.326846
    33  H    7.445142   7.175908   4.755830   5.412655   4.985568
                   31         32         33
    31  H    0.000000
    32  H    2.486363   0.000000
    33  H    4.291248   2.476981   0.000000
 Stoichiometry    C12H17FN2O
 Framework group  C1[X(C12H17FN2O)]
 Deg. of freedom    93
 Full point group                 C1      NOp   1
 Largest Abelian subgroup         C1      NOp   1
 Largest concise Abelian subgroup C1      NOp   1
                         Standard orientation:                         
 ---------------------------------------------------------------------
 Center     Atomic      Atomic             Coordinates (Angstroms)
 Number     Number       Type             X           Y           Z
 ---------------------------------------------------------------------
      1          6           0        4.024230   -1.187452   -0.218294
      2          7           0        2.987225   -0.435112    0.510743
      3          6           0        2.672282   -1.013227    1.834237
      4          6           0        1.888139    0.080747   -0.148375
      5          8           0        1.616452   -0.332149   -1.258714
      6          6           0        1.433877    1.496648    0.336052
      7          7           0        0.025052    1.907575    0.023166
      8          6           0       -0.284679    3.351399    0.256671
      9          6           0       -0.728511    1.298119   -1.103434
     10          6           0       -1.792683    0.326870   -0.519039
     11          6           0       -2.797864    0.678778    0.415979
     12          6           0       -3.522983   -0.328540    1.101419
     13          6           0       -3.230148   -1.688442    0.907289
     14          6           0       -2.237651   -2.049274   -0.000079
     15          6           0       -1.559681   -1.062221   -0.719977
     16          9           0       -0.652164   -1.493484   -1.612606
     17          1           0        4.941588   -1.214239    0.381568
     18          1           0        4.231459   -0.698830   -1.177931
     19          1           0        3.681876   -2.215644   -0.402712
     20          1           0        3.443792   -1.726907    2.146422
     21          1           0        1.711632   -1.548894    1.781316
     22          1           0        2.583098   -0.214352    2.578417
     23          1           0        2.181651    2.263635    0.086098
     24          1           0        1.451539    1.402103    1.428136
     25          1           0       -1.325013    3.581221    0.009179
     26          1           0        0.342303    3.973918   -0.404863
     27          1           0       -0.083984    3.676964    1.282203
     28          1           0       -0.126379    0.908295   -1.922242
     29          1           0       -1.335447    2.085685   -1.573549
     30          1           0       -3.001405    1.719143    0.648537
     31          1           0       -4.292606   -0.062328    1.819647
     32          1           0       -3.759317   -2.463505    1.456388
     33          1           0       -1.978843   -3.095393   -0.145506
 ---------------------------------------------------------------------
 Rotational constants (GHZ):      0.7171275      0.3705416      0.3042926
 Standard basis: 6-31G(d,p) (6D, 7F)
 There are   325 symmetry adapted basis functions of A   symmetry.
 Integral buffers will be    131072 words long.
 Raffenetti 2 integral format.
 Two-electron integral symmetry is turned on.
   325 basis functions,   567 primitive gaussians,   325 cartesian basis functions
    60 alpha electrons       60 beta electrons
       nuclear repulsion energy      1137.7540321390 Hartrees.
 NAtoms=   33 NActive=   33 NUniq=   33 SFac= 1.00D+00 NAtFMM=   60 NAOKFM=F Big=F
 One-electron integrals computed using PRISM.
 NBasis=   325 RedAO= T  NBF=   325
 NBsUse=   325 1.00D-06 NBFU=   325
 Harris functional with IExCor=  402 diagonalized for initial guess.
 ExpMin= 1.61D-01 ExpMax= 7.00D+03 ExpMxC= 1.05D+03 IAcc=1 IRadAn=         1 AccDes= 0.00D+00
 HarFok:  IExCor=  402 AccDes= 0.00D+00 IRadAn=         1 IDoV= 1
 ScaDFX=  1.000000  1.000000  1.000000  1.000000
 FoFCou: FMM=F IPFlag=           0 FMFlag=      100000 FMFlg1=           0
         NFxFlg=           0 DoJE=T BraDBF=F KetDBF=T FulRan=T
         Omega=  0.000000  0.000000  1.000000  0.000000  0.000000 ICntrl=     500 IOpCl=  0
         NMat0=    1 NMatS0=    1 NMatT0=    0 NMatD0=    1 NMtDS0=    0 NMtDT0=    0
         I1Cent=           4 NGrid=           0.
 Petite list used in FoFCou.
 Initial guess orbital symmetries:
       Occupied  (A) (A) (A) (A) (A) (A) (A) (A) (A) (A) (A) (A)
                 (A) (A) (A) (A) (A) (A) (A) (A) (A) (A) (A) (A)
                 (A) (A) (A) (A) (A) (A) (A) (A) (A) (A) (A) (A)
                 (A) (A) (A) (A) (A) (A) (A) (A) (A) (A) (A) (A)
                 (A) (A) (A) (A) (A) (A) (A) (A) (A) (A) (A) (A)
       Virtual   (A) (A) (A) (A) (A) (A) (A) (A) (A) (A) (A) (A)
                 (A) (A) (A) (A) (A) (A) (A) (A) (A) (A) (A) (A)
                 (A) (A) (A) (A) (A) (A) (A) (A) (A) (A) (A) (A)
                 (A) (A) (A) (A) (A) (A) (A) (A) (A) (A) (A) (A)
                 (A) (A) (A) (A) (A) (A) (A) (A) (A) (A) (A) (A)
                 (A) (A) (A) (A) (A) (A) (A) (A) (A) (A) (A) (A)
                 (A) (A) (A) (A) (A) (A) (A) (A) (A) (A) (A) (A)
                 (A) (A) (A) (A) (A) (A) (A) (A) (A) (A) (A) (A)
                 (A) (A) (A) (A) (A) (A) (A) (A) (A) (A) (A) (A)
                 (A) (A) (A) (A) (A) (A) (A) (A) (A) (A) (A) (A)
                 (A) (A) (A) (A) (A) (A) (A) (A) (A) (A) (A) (A)
                 (A) (A) (A) (A) (A) (A) (A) (A) (A) (A) (A) (A)
                 (A) (A) (A) (A) (A) (A) (A) (A) (A) (A) (A) (A)
                 (A) (A) (A) (A) (A) (A) (A) (A) (A) (A) (A) (A)
                 (A) (A) (A) (A) (A) (A) (A) (A) (A) (A) (A) (A)
                 (A) (A) (A) (A) (A) (A) (A) (A) (A) (A) (A) (A)
                 (A) (A) (A) (A) (A) (A) (A) (A) (A) (A) (A) (A)
                 (A) (A) (A) (A) (A) (A) (A) (A) (A) (A) (A) (A)
                 (A) (A) (A) (A) (A) (A) (A) (A) (A) (A) (A) (A)
                 (A) (A) (A) (A) (A) (A) (A) (A) (A) (A) (A) (A)
                 (A) (A) (A) (A) (A) (A) (A) (A) (A) (A) (A) (A)
                 (A) (A) (A) (A) (A) (A) (A) (A) (A) (A) (A) (A)
                 (A)
 The electronic state of the initial guess is 1-A.
 Requested convergence on RMS density matrix=1.00D-08 within 128 cycles.
 Requested convergence on MAX density matrix=1.00D-06.
 Requested convergence on             energy=1.00D-06.
 No special actions if energy rises.
 Keep R1 ints in memory in canonical form, NReq=1421145144.
 Integral accuracy reduced to 1.0D-05 until final iterations.
 Initial convergence to 1.0D-05 achieved.  Increase integral accuracy.
 SCF Done:  E(RB3LYP) =  -752.033731646     A.U. after   15 cycles
             Convg  =    0.7337D-08             -V/T =  2.0097

 **********************************************************************

            Population analysis using the SCF density.

 **********************************************************************

 Orbital symmetries:
       Occupied  (A) (A) (A) (A) (A) (A) (A) (A) (A) (A) (A) (A)
                 (A) (A) (A) (A) (A) (A) (A) (A) (A) (A) (A) (A)
                 (A) (A) (A) (A) (A) (A) (A) (A) (A) (A) (A) (A)
                 (A) (A) (A) (A) (A) (A) (A) (A) (A) (A) (A) (A)
                 (A) (A) (A) (A) (A) (A) (A) (A) (A) (A) (A) (A)
       Virtual   (A) (A) (A) (A) (A) (A) (A) (A) (A) (A) (A) (A)
                 (A) (A) (A) (A) (A) (A) (A) (A) (A) (A) (A) (A)
                 (A) (A) (A) (A) (A) (A) (A) (A) (A) (A) (A) (A)
                 (A) (A) (A) (A) (A) (A) (A) (A) (A) (A) (A) (A)
                 (A) (A) (A) (A) (A) (A) (A) (A) (A) (A) (A) (A)
                 (A) (A) (A) (A) (A) (A) (A) (A) (A) (A) (A) (A)
                 (A) (A) (A) (A) (A) (A) (A) (A) (A) (A) (A) (A)
                 (A) (A) (A) (A) (A) (A) (A) (A) (A) (A) (A) (A)
                 (A) (A) (A) (A) (A) (A) (A) (A) (A) (A) (A) (A)
                 (A) (A) (A) (A) (A) (A) (A) (A) (A) (A) (A) (A)
                 (A) (A) (A) (A) (A) (A) (A) (A) (A) (A) (A) (A)
                 (A) (A) (A) (A) (A) (A) (A) (A) (A) (A) (A) (A)
                 (A) (A) (A) (A) (A) (A) (A) (A) (A) (A) (A) (A)
                 (A) (A) (A) (A) (A) (A) (A) (A) (A) (A) (A) (A)
                 (A) (A) (A) (A) (A) (A) (A) (A) (A) (A) (A) (A)
                 (A) (A) (A) (A) (A) (A) (A) (A) (A) (A) (A) (A)
                 (A) (A) (A) (A) (A) (A) (A) (A) (A) (A) (A) (A)
                 (A) (A) (A) (A) (A) (A) (A) (A) (A) (A) (A) (A)
                 (A) (A) (A) (A) (A) (A) (A) (A) (A) (A) (A) (A)
                 (A) (A) (A) (A) (A) (A) (A) (A) (A) (A) (A) (A)
                 (A) (A) (A) (A) (A) (A) (A) (A) (A) (A) (A) (A)
                 (A) (A) (A) (A) (A) (A) (A) (A) (A) (A) (A) (A)
                 (A)
 The electronic state is 1-A.
 Alpha  occ. eigenvalues --  -24.68636 -19.12292 -14.34884 -14.32125 -10.28630
 Alpha  occ. eigenvalues --  -10.25605 -10.22313 -10.22236 -10.21606 -10.20675
 Alpha  occ. eigenvalues --  -10.20397 -10.19200 -10.19017 -10.18624 -10.18380
 Alpha  occ. eigenvalues --  -10.18154  -1.19988  -1.04273  -0.92166  -0.89208
 Alpha  occ. eigenvalues --   -0.83853  -0.75656  -0.73274  -0.72869  -0.71306
 Alpha  occ. eigenvalues --   -0.68581  -0.67402  -0.61187  -0.59655  -0.57669
 Alpha  occ. eigenvalues --   -0.53313  -0.51960  -0.49149  -0.48320  -0.47506
 Alpha  occ. eigenvalues --   -0.46841  -0.46623  -0.44786  -0.44387  -0.44027
 Alpha  occ. eigenvalues --   -0.43025  -0.42508  -0.40833  -0.40780  -0.40643
 Alpha  occ. eigenvalues --   -0.39872  -0.39256  -0.37935  -0.37740  -0.36880
 Alpha  occ. eigenvalues --   -0.36063  -0.34524  -0.34300  -0.33369  -0.32027
 Alpha  occ. eigenvalues --   -0.25342  -0.24057  -0.22946  -0.22407  -0.19012
 Alpha virt. eigenvalues --   -0.01104  -0.00008   0.01350   0.08126   0.09219
 Alpha virt. eigenvalues --    0.10452   0.12234   0.12587   0.13435   0.14122
 Alpha virt. eigenvalues --    0.14387   0.14973   0.15141   0.15814   0.16171
 Alpha virt. eigenvalues --    0.16434   0.16956   0.18002   0.18325   0.18846
 Alpha virt. eigenvalues --    0.19412   0.19508   0.21745   0.22287   0.22939
 Alpha virt. eigenvalues --    0.23832   0.26414   0.27931   0.28477   0.31044
 Alpha virt. eigenvalues --    0.32544   0.34261   0.35438   0.36095   0.38623
 Alpha virt. eigenvalues --    0.47244   0.49609   0.50254   0.50455   0.51871
 Alpha virt. eigenvalues --    0.52457   0.52898   0.54012   0.54672   0.55512
 Alpha virt. eigenvalues --    0.56045   0.56697   0.57107   0.58931   0.59810
 Alpha virt. eigenvalues --    0.60554   0.61149   0.61473   0.61625   0.62394
 Alpha virt. eigenvalues --    0.63263   0.63465   0.66250   0.66777   0.67868
 Alpha virt. eigenvalues --    0.69825   0.70294   0.71423   0.74367   0.75660
 Alpha virt. eigenvalues --    0.77291   0.79173   0.80042   0.80828   0.81201
 Alpha virt. eigenvalues --    0.81592   0.82556   0.83443   0.83569   0.84317
 Alpha virt. eigenvalues --    0.85029   0.85263   0.86459   0.87988   0.88771
 Alpha virt. eigenvalues --    0.90075   0.90488   0.90917   0.91558   0.92054
 Alpha virt. eigenvalues --    0.93323   0.93408   0.95090   0.95600   0.96196
 Alpha virt. eigenvalues --    0.98641   0.99209   1.00259   1.02081   1.03293
 Alpha virt. eigenvalues --    1.04443   1.06092   1.08257   1.11781   1.12678
 Alpha virt. eigenvalues --    1.14306   1.17909   1.19197   1.22213   1.23542
 Alpha virt. eigenvalues --    1.25291   1.27933   1.30239   1.31852   1.33707
 Alpha virt. eigenvalues --    1.35491   1.35961   1.37557   1.39547   1.41358
 Alpha virt. eigenvalues --    1.42048   1.42177   1.43487   1.45685   1.47806
 Alpha virt. eigenvalues --    1.49086   1.53379   1.54523   1.58381   1.58534
 Alpha virt. eigenvalues --    1.61805   1.65301   1.68881   1.71329   1.72694
 Alpha virt. eigenvalues --    1.74253   1.75003   1.76325   1.78327   1.78847
 Alpha virt. eigenvalues --    1.79627   1.82423   1.83369   1.85820   1.86235
 Alpha virt. eigenvalues --    1.87293   1.88448   1.89890   1.90389   1.91348
 Alpha virt. eigenvalues --    1.91483   1.92477   1.93072   1.93486   1.94043
 Alpha virt. eigenvalues --    1.94408   1.96929   1.97384   1.99967   2.00902
 Alpha virt. eigenvalues --    2.01181   2.01874   2.02522   2.03027   2.04565
 Alpha virt. eigenvalues --    2.04974   2.05947   2.06665   2.07392   2.09067
 Alpha virt. eigenvalues --    2.10492   2.12507   2.12597   2.13594   2.14946
 Alpha virt. eigenvalues --    2.17227   2.19508   2.22178   2.24650   2.26148
 Alpha virt. eigenvalues --    2.28837   2.29567   2.30745   2.32159   2.32205
 Alpha virt. eigenvalues --    2.33690   2.35529   2.37687   2.38913   2.39472
 Alpha virt. eigenvalues --    2.40540   2.40715   2.42415   2.43293   2.44429
 Alpha virt. eigenvalues --    2.46333   2.48684   2.51333   2.51943   2.52610
 Alpha virt. eigenvalues --    2.53795   2.54799   2.55149   2.56647   2.57677
 Alpha virt. eigenvalues --    2.59764   2.60434   2.62897   2.64046   2.65700
 Alpha virt. eigenvalues --    2.66808   2.68122   2.71511   2.72069   2.72254
 Alpha virt. eigenvalues --    2.73664   2.74457   2.76166   2.79266   2.79770
 Alpha virt. eigenvalues --    2.82876   2.85266   2.85781   2.87069   2.87261
 Alpha virt. eigenvalues --    2.88749   2.91626   2.94998   2.95735   3.00350
 Alpha virt. eigenvalues --    3.03004   3.06220   3.07883   3.13709   3.14693
 Alpha virt. eigenvalues --    3.17991   3.18642   3.19094   3.22206   3.24476
 Alpha virt. eigenvalues --    3.29856   3.30997   3.33267   3.37365   3.39889
 Alpha virt. eigenvalues --    3.40890   3.42807   3.43534   3.45290   3.45642
 Alpha virt. eigenvalues --    3.47710   3.48582   3.52392   3.83108   3.98712
 Alpha virt. eigenvalues --    4.08914   4.11611   4.13775   4.18491   4.19871
 Alpha virt. eigenvalues --    4.32695   4.42181   4.43660   4.44793   4.49999
 Alpha virt. eigenvalues --    4.51066   4.59711   4.66686   4.80386   5.48151
          Condensed to atoms (all electrons):
              1          2          3          4          5          6
     1  C    4.781700   0.287222  -0.047888  -0.025954   0.006604   0.005648
     2  N    0.287222   7.080319   0.272782   0.240907  -0.099908  -0.104196
     3  C   -0.047888   0.272782   4.830072  -0.028297   0.000939  -0.002075
     4  C   -0.025954   0.240907  -0.028297   4.509452   0.532003   0.344090
     5  O    0.006604  -0.099908   0.000939   0.532003   8.068218  -0.075334
     6  C    0.005648  -0.104196  -0.002075   0.344090  -0.075334   4.970130
     7  N   -0.000050   0.002451  -0.000049  -0.022584  -0.001686   0.281747
     8  C    0.000001  -0.000077  -0.000001   0.002178  -0.000033  -0.037381
     9  C    0.000004   0.000089  -0.000007  -0.002800  -0.008478  -0.043116
    10  C    0.000001  -0.000007  -0.000011  -0.000440  -0.001289   0.003663
    11  C    0.000000   0.000000   0.000001  -0.000030  -0.000012   0.000046
    12  C    0.000000   0.000000   0.000000  -0.000001   0.000001  -0.000003
    13  C    0.000000   0.000000  -0.000001  -0.000005  -0.000001  -0.000003
    14  C    0.000000  -0.000003  -0.000025  -0.000036  -0.000065  -0.000022
    15  C    0.000002  -0.000067  -0.000059   0.002090   0.003842   0.000265
    16  F   -0.000001  -0.000008   0.000011   0.001965  -0.002175   0.000020
    17  H    0.384269  -0.038845  -0.005746   0.005141   0.000551  -0.000107
    18  H    0.390206  -0.033668   0.004789  -0.000841   0.004580   0.000150
    19  H    0.381198  -0.047417  -0.000171  -0.005205   0.002557   0.000013
    20  H   -0.004536  -0.027655   0.386900   0.001837  -0.000136  -0.000060
    21  H    0.000648  -0.048444   0.387471  -0.008153   0.002194   0.000707
    22  H    0.004145  -0.046421   0.386318   0.002983  -0.000131  -0.001431
    23  H   -0.000211   0.000432   0.000122  -0.023082  -0.003682   0.361023
    24  H   -0.000002   0.003540   0.000644  -0.027179   0.004179   0.355699
    25  H    0.000000   0.000001   0.000000  -0.000088   0.000003   0.003268
    26  H    0.000000  -0.000001   0.000000   0.000058  -0.000014  -0.007185
    27  H    0.000000   0.000005  -0.000002   0.000022   0.000004   0.001284
    28  H   -0.000010   0.000268  -0.000003   0.000344   0.015129  -0.006079
    29  H    0.000000   0.000003   0.000000   0.000287   0.000516   0.003708
    30  H    0.000000   0.000000   0.000000  -0.000002   0.000000   0.000012
    31  H    0.000000   0.000000   0.000000   0.000000   0.000000   0.000000
    32  H    0.000000   0.000000   0.000000   0.000000   0.000000   0.000000
    33  H    0.000000   0.000000  -0.000001   0.000006   0.000007   0.000000
              7          8          9         10         11         12
     1  C   -0.000050   0.000001   0.000004   0.000001   0.000000   0.000000
     2  N    0.002451  -0.000077   0.000089  -0.000007   0.000000   0.000000
     3  C   -0.000049  -0.000001  -0.000007  -0.000011   0.000001   0.000000
     4  C   -0.022584   0.002178  -0.002800  -0.000440  -0.000030  -0.000001
     5  O   -0.001686  -0.000033  -0.008478  -0.001289  -0.000012   0.000001
     6  C    0.281747  -0.037381  -0.043116   0.003663   0.000046  -0.000003
     7  N    6.933633   0.315967   0.313451  -0.088666   0.000986   0.000083
     8  C    0.315967   4.792319  -0.039735   0.001518   0.000885   0.000027
     9  C    0.313451  -0.039735   4.922758   0.326409  -0.049528   0.004207
    10  C   -0.088666   0.001518   0.326409   5.051204   0.485967  -0.022549
    11  C    0.000986   0.000885  -0.049528   0.485967   4.901253   0.521484
    12  C    0.000083   0.000027   0.004207  -0.022549   0.521484   4.838144
    13  C    0.000017  -0.000002  -0.000036  -0.029768  -0.033028   0.538405
    14  C   -0.000145   0.000007   0.006936  -0.075907  -0.039038  -0.034268
    15  C   -0.003430  -0.000098  -0.038206   0.460857  -0.015142  -0.042294
    16  F    0.000016  -0.000002  -0.002293  -0.049707   0.002536  -0.000036
    17  H    0.000000   0.000000   0.000000   0.000000   0.000000   0.000000
    18  H   -0.000008   0.000000   0.000000   0.000000   0.000000   0.000000
    19  H    0.000005   0.000000   0.000001   0.000000   0.000000   0.000000
    20  H   -0.000001   0.000000   0.000000   0.000000   0.000000   0.000000
    21  H    0.000161   0.000000   0.000006   0.000043  -0.000010  -0.000002
    22  H   -0.000243   0.000006   0.000003   0.000000   0.000000   0.000000
    23  H   -0.040647  -0.004465  -0.000823  -0.000371   0.000006   0.000000
    24  H   -0.061518  -0.000961   0.005535   0.000333  -0.000002  -0.000001
    25  H   -0.031168   0.389287  -0.003932   0.000518  -0.000137   0.000004
    26  H   -0.053669   0.365334  -0.004153  -0.000630   0.000077   0.000000
    27  H   -0.039271   0.383485   0.004637   0.000220  -0.000209  -0.000004
    28  H   -0.027518   0.002397   0.369479  -0.030514   0.003679  -0.000076
    29  H   -0.039688  -0.013478   0.355654  -0.050498  -0.003547  -0.000070
    30  H    0.000715  -0.000052  -0.006520  -0.040584   0.367879  -0.040832
    31  H    0.000007   0.000000  -0.000113   0.003835  -0.039006   0.367400
    32  H    0.000000   0.000000   0.000007   0.000387   0.004484  -0.039654
    33  H    0.000003   0.000000  -0.000162   0.006508   0.000240   0.005130
             13         14         15         16         17         18
     1  C    0.000000   0.000000   0.000002  -0.000001   0.384269   0.390206
     2  N    0.000000  -0.000003  -0.000067  -0.000008  -0.038845  -0.033668
     3  C   -0.000001  -0.000025  -0.000059   0.000011  -0.005746   0.004789
     4  C   -0.000005  -0.000036   0.002090   0.001965   0.005141  -0.000841
     5  O   -0.000001  -0.000065   0.003842  -0.002175   0.000551   0.004580
     6  C   -0.000003  -0.000022   0.000265   0.000020  -0.000107   0.000150
     7  N    0.000017  -0.000145  -0.003430   0.000016   0.000000  -0.000008
     8  C   -0.000002   0.000007  -0.000098  -0.000002   0.000000   0.000000
     9  C   -0.000036   0.006936  -0.038206  -0.002293   0.000000   0.000000
    10  C   -0.029768  -0.075907   0.460857  -0.049707   0.000000   0.000000
    11  C   -0.033028  -0.039038  -0.015142   0.002536   0.000000   0.000000
    12  C    0.538405  -0.034268  -0.042294  -0.000036   0.000000   0.000000
    13  C    4.844050   0.489348  -0.015566   0.003270   0.000000   0.000000
    14  C    0.489348   5.036483   0.481781  -0.046195   0.000000   0.000000
    15  C   -0.015566   0.481781   4.586811   0.291422   0.000000  -0.000001
    16  F    0.003270  -0.046195   0.291422   9.075874   0.000000   0.000000
    17  H    0.000000   0.000000   0.000000   0.000000   0.610415  -0.026443
    18  H    0.000000   0.000000  -0.000001   0.000000  -0.026443   0.561449
    19  H    0.000000   0.000000   0.000005  -0.000002  -0.044633  -0.031879
    20  H    0.000000   0.000000   0.000000   0.000000   0.002612   0.000238
    21  H   -0.000004   0.000190   0.000285  -0.000032  -0.000425  -0.000298
    22  H    0.000000   0.000000  -0.000001   0.000000   0.000584  -0.000191
    23  H    0.000000   0.000000  -0.000014  -0.000001   0.000003   0.000020
    24  H    0.000001  -0.000002   0.000022   0.000001  -0.000013  -0.000008
    25  H    0.000000   0.000000   0.000006   0.000000   0.000000   0.000000
    26  H    0.000000   0.000000  -0.000008   0.000000   0.000000   0.000000
    27  H    0.000000   0.000000   0.000015   0.000000   0.000000   0.000000
    28  H   -0.000030   0.000212  -0.007505   0.005476   0.000000   0.000005
    29  H    0.000008  -0.000325   0.003359   0.000184   0.000000   0.000000
    30  H    0.004594   0.000253   0.003822  -0.000018   0.000000   0.000000
    31  H   -0.041960   0.004917   0.000744   0.000000   0.000000   0.000000
    32  H    0.367911  -0.037748   0.003803  -0.000027   0.000000   0.000000
    33  H   -0.042396   0.353451  -0.032526  -0.000655   0.000000   0.000000
             19         20         21         22         23         24
     1  C    0.381198  -0.004536   0.000648   0.004145  -0.000211  -0.000002
     2  N   -0.047417  -0.027655  -0.048444  -0.046421   0.000432   0.003540
     3  C   -0.000171   0.386900   0.387471   0.386318   0.000122   0.000644
     4  C   -0.005205   0.001837  -0.008153   0.002983  -0.023082  -0.027179
     5  O    0.002557  -0.000136   0.002194  -0.000131  -0.003682   0.004179
     6  C    0.000013  -0.000060   0.000707  -0.001431   0.361023   0.355699
     7  N    0.000005  -0.000001   0.000161  -0.000243  -0.040647  -0.061518
     8  C    0.000000   0.000000   0.000000   0.000006  -0.004465  -0.000961
     9  C    0.000001   0.000000   0.000006   0.000003  -0.000823   0.005535
    10  C    0.000000   0.000000   0.000043   0.000000  -0.000371   0.000333
    11  C    0.000000   0.000000  -0.000010   0.000000   0.000006  -0.000002
    12  C    0.000000   0.000000  -0.000002   0.000000   0.000000  -0.000001
    13  C    0.000000   0.000000  -0.000004   0.000000   0.000000   0.000001
    14  C    0.000000   0.000000   0.000190   0.000000   0.000000  -0.000002
    15  C    0.000005   0.000000   0.000285  -0.000001  -0.000014   0.000022
    16  F   -0.000002   0.000000  -0.000032   0.000000  -0.000001   0.000001
    17  H   -0.044633   0.002612  -0.000425   0.000584   0.000003  -0.000013
    18  H   -0.031879   0.000238  -0.000298  -0.000191   0.000020  -0.000008
    19  H    0.626599  -0.000240   0.003583  -0.000461  -0.000006  -0.000010
    20  H   -0.000240   0.577512  -0.031536  -0.024922  -0.000027   0.000090
    21  H    0.003583  -0.031536   0.610084  -0.042292  -0.000001  -0.000237
    22  H   -0.000461  -0.024922  -0.042292   0.593993   0.000140   0.003012
    23  H   -0.000006  -0.000027  -0.000001   0.000140   0.637146  -0.055465
    24  H   -0.000010   0.000090  -0.000237   0.003012  -0.055465   0.663425
    25  H    0.000000   0.000000   0.000000   0.000000  -0.000168  -0.000009
    26  H    0.000000   0.000000   0.000000   0.000000   0.012771  -0.001731
    27  H    0.000000   0.000000   0.000000   0.000001  -0.002726   0.004383
    28  H   -0.000004   0.000000  -0.000013   0.000001   0.001351  -0.000158
    29  H    0.000000   0.000000   0.000000   0.000000   0.000247  -0.000252
    30  H    0.000000   0.000000   0.000000   0.000000   0.000002   0.000000
    31  H    0.000000   0.000000   0.000000   0.000000   0.000000   0.000000
    32  H    0.000000   0.000000   0.000000   0.000000   0.000000   0.000000
    33  H    0.000000   0.000000   0.000013   0.000000   0.000000   0.000000
             25         26         27         28         29         30
     1  C    0.000000   0.000000   0.000000  -0.000010   0.000000   0.000000
     2  N    0.000001  -0.000001   0.000005   0.000268   0.000003   0.000000
     3  C    0.000000   0.000000  -0.000002  -0.000003   0.000000   0.000000
     4  C   -0.000088   0.000058   0.000022   0.000344   0.000287  -0.000002
     5  O    0.000003  -0.000014   0.000004   0.015129   0.000516   0.000000
     6  C    0.003268  -0.007185   0.001284  -0.006079   0.003708   0.000012
     7  N   -0.031168  -0.053669  -0.039271  -0.027518  -0.039688   0.000715
     8  C    0.389287   0.365334   0.383485   0.002397  -0.013478  -0.000052
     9  C   -0.003932  -0.004153   0.004637   0.369479   0.355654  -0.006520
    10  C    0.000518  -0.000630   0.000220  -0.030514  -0.050498  -0.040584
    11  C   -0.000137   0.000077  -0.000209   0.003679  -0.003547   0.367879
    12  C    0.000004   0.000000  -0.000004  -0.000076  -0.000070  -0.040832
    13  C    0.000000   0.000000   0.000000  -0.000030   0.000008   0.004594
    14  C    0.000000   0.000000   0.000000   0.000212  -0.000325   0.000253
    15  C    0.000006  -0.000008   0.000015  -0.007505   0.003359   0.003822
    16  F    0.000000   0.000000   0.000000   0.005476   0.000184  -0.000018
    17  H    0.000000   0.000000   0.000000   0.000000   0.000000   0.000000
    18  H    0.000000   0.000000   0.000000   0.000005   0.000000   0.000000
    19  H    0.000000   0.000000   0.000000  -0.000004   0.000000   0.000000
    20  H    0.000000   0.000000   0.000000   0.000000   0.000000   0.000000
    21  H    0.000000   0.000000   0.000000  -0.000013   0.000000   0.000000
    22  H    0.000000   0.000000   0.000001   0.000001   0.000000   0.000000
    23  H   -0.000168   0.012771  -0.002726   0.001351   0.000247   0.000002
    24  H   -0.000009  -0.001731   0.004383  -0.000158  -0.000252   0.000000
    25  H    0.594062  -0.038697  -0.027350   0.000022   0.001742   0.001552
    26  H   -0.038697   0.686253  -0.052160   0.000863   0.004500   0.000010
    27  H   -0.027350  -0.052160   0.622036  -0.000239   0.000143   0.000188
    28  H    0.000022   0.000863  -0.000239   0.549337  -0.028035   0.000004
    29  H    0.001742   0.004500   0.000143  -0.028035   0.675174   0.002472
    30  H    0.001552   0.000010   0.000188   0.000004   0.002472   0.629491
    31  H   -0.000002   0.000000   0.000000   0.000001   0.000001  -0.005562
    32  H    0.000000   0.000000   0.000000   0.000000   0.000000  -0.000183
    33  H    0.000000   0.000000   0.000000   0.000001   0.000004   0.000014
             31         32         33
     1  C    0.000000   0.000000   0.000000
     2  N    0.000000   0.000000   0.000000
     3  C    0.000000   0.000000  -0.000001
     4  C    0.000000   0.000000   0.000006
     5  O    0.000000   0.000000   0.000007
     6  C    0.000000   0.000000   0.000000
     7  N    0.000007   0.000000   0.000003
     8  C    0.000000   0.000000   0.000000
     9  C   -0.000113   0.000007  -0.000162
    10  C    0.003835   0.000387   0.006508
    11  C   -0.039006   0.004484   0.000240
    12  C    0.367400  -0.039654   0.005130
    13  C   -0.041960   0.367911  -0.042396
    14  C    0.004917  -0.037748   0.353451
    15  C    0.000744   0.003803  -0.032526
    16  F    0.000000  -0.000027  -0.000655
    17  H    0.000000   0.000000   0.000000
    18  H    0.000000   0.000000   0.000000
    19  H    0.000000   0.000000   0.000000
    20  H    0.000000   0.000000   0.000000
    21  H    0.000000   0.000000   0.000013
    22  H    0.000000   0.000000   0.000000
    23  H    0.000000   0.000000   0.000000
    24  H    0.000000   0.000000   0.000000
    25  H   -0.000002   0.000000   0.000000
    26  H    0.000000   0.000000   0.000000
    27  H    0.000000   0.000000   0.000000
    28  H    0.000001   0.000000   0.000001
    29  H    0.000001   0.000000   0.000004
    30  H   -0.005562  -0.000183   0.000014
    31  H    0.635789  -0.005814  -0.000188
    32  H   -0.005814   0.627549  -0.006919
    33  H   -0.000188  -0.006919   0.626769
 Mulliken atomic charges:
              1
     1  C   -0.162993
     2  N   -0.441302
     3  C   -0.185714
     4  C    0.501335
     5  O   -0.448383
     6  C   -0.054481
     7  N   -0.438902
     8  C   -0.157126
     9  C   -0.109272
    10  C    0.049480
    11  C   -0.109835
    12  C   -0.095093
    13  C   -0.084804
    14  C   -0.139797
    15  C    0.315787
    16  F   -0.279623
    17  H    0.112638
    18  H    0.131899
    19  H    0.116067
    20  H    0.119923
    21  H    0.126065
    22  H    0.124907
    23  H    0.118423
    24  H    0.106685
    25  H    0.111084
    26  H    0.088383
    27  H    0.105540
    28  H    0.151618
    29  H    0.087890
    30  H    0.082745
    31  H    0.079950
    32  H    0.086206
    33  H    0.090701
 Sum of Mulliken atomic charges =   0.00000
 Mulliken charges with hydrogens summed into heavy atoms:
              1
     1  C    0.197611
     2  N   -0.441302
     3  C    0.185181
     4  C    0.501335
     5  O   -0.448383
     6  C    0.170627
     7  N   -0.438902
     8  C    0.147881
     9  C    0.130237
    10  C    0.049480
    11  C   -0.027089
    12  C   -0.015143
    13  C    0.001402
    14  C   -0.049097
    15  C    0.315787
    16  F   -0.279623
 Sum of Mulliken charges with hydrogens summed into heavy atoms =   0.00000
 Electronic spatial extent (au):  <R**2>=           3965.2918
 Charge=              0.0000 electrons
 Dipole moment (field-independent basis, Debye):
    X=              1.4757    Y=              0.7252    Z=              2.7150  Tot=              3.1741
 Quadrupole moment (field-independent basis, Debye-Ang):
   XX=            -85.4404   YY=            -86.5694   ZZ=            -95.8316
   XY=             -2.9883   XZ=              1.3532   YZ=             -3.9698
 Traceless Quadrupole moment (field-independent basis, Debye-Ang):
   XX=              3.8401   YY=              2.7111   ZZ=             -6.5511
   XY=             -2.9883   XZ=              1.3532   YZ=             -3.9698
 Octapole moment (field-independent basis, Debye-Ang**2):
  XXX=             48.2279  YYY=             -8.1773  ZZZ=             -8.6120  XYY=             -0.6921
  XXY=            -16.4492  XXZ=             14.3315  XZZ=              5.9938  YZZ=             -0.5210
  YYZ=              1.9621  XYZ=             -1.4367
 Hexadecapole moment (field-independent basis, Debye-Ang**3):
 XXXX=          -3075.4131 YYYY=          -1396.4988 ZZZZ=           -602.0239 XXXY=            -68.3707
 XXXZ=            -61.0189 YYYX=              2.7036 YYYZ=             18.6242 ZZZX=             14.6876
 ZZZY=             12.0335 XXYY=           -727.3040 XXZZ=           -608.3820 YYZZ=           -344.2120
 XXYZ=            -23.5135 YYXZ=             -2.8027 ZZXY=             -4.6085
 N-N= 1.137754032139D+03 E-N=-4.028517035364D+03  KE= 7.447731679559D+02
 1\1\GINC-C02\SP\RB3LYP\6-31G(d,p)\C12H17F1N2O1\TUU61186\08-Jun-2026\0\
 \# b3lyp/6-31g(d,p)\\Generated by mdgx\\0,1\C,0,13.1309241,19.7861681,
 16.4709865\N,0,12.7048974,18.4341687,16.0666489\C,0,12.0884847,17.6653
 567,17.1684691\C,0,13.4814053,17.6684625,15.2185529\O,0,14.6445122,17.
 9744593,15.0433397\C,0,12.681291,16.8392709,14.1611708\N,0,13.3792784,
 15.6637586,13.5426794\C,0,12.6940029,15.067962,12.3550312\C,0,14.86222
 79,15.5792836,13.495286\C,0,15.3316876,14.5279843,14.5401211\C,0,14.91
 19536,13.1751738,14.5871662\C,0,15.1654864,12.386009,15.7374954\C,0,15
 .790568,12.9369038,16.8682294\C,0,16.19879,14.2677589,16.8409453\C,0,1
 6.0023114,15.0332099,15.6887083\F,0,16.4694037,16.2929565,15.7236912\H
 ,0,12.2637307,20.3422703,16.8462505\H,0,13.5563921,20.3143308,15.60923
 28\H,0,13.8890829,19.719066,17.2641368\H,0,11.8166603,18.3218659,18.00
 3414\H,0,12.8062899,16.9177081,17.5404442\H,0,11.198595,17.1403737,16.
 8045357\H,0,12.1898948,17.4950818,13.4274452\H,0,11.8750717,16.3929741
 ,14.7550791\H,0,13.2550487,14.2182663,11.9555182\H,0,12.6390424,15.818
 0832,11.547218\H,0,11.6675835,14.7492473,12.5620835\H,0,15.3929357,16.
 5296738,13.504221\H,0,15.1476172,15.1264091,12.5345058\H,0,14.3597409,
 12.7352393,13.7629158\H,0,14.8437693,11.3496976,15.7774455\H,0,15.9558
 537,12.3457404,17.7657036\H,0,16.6613666,14.7195855,17.7152288\\Versio
 n=EM64L-G09RevC.01\State=1-A\HF=-752.0337316\RMSD=7.337e-09\Dipole=-1.
 2140964,0.00574,0.2921834\Quadrupole=-4.1247433,0.7951154,3.3296279,-3
 .3299967,-0.0312572,2.678019\PG=C01 [X(C12H17F1N2O1)]\\@


 NOBODY LOSES ALL THE TIME
 I HAD AN UNCLE NAMED
 SOL WHO WAS A BORN FAILURE AND
 NEARLY EVERYBODY SAID HE SHOULD HAVE GONE
 INTO VAUDEVILLE PERHAPS BECAUSE MY UNCLE SOL COULD
 SING MCCANN HE WAS A DIVER ON XMAS EVE LIKE HELL ITSELF WHICH
 MAY OR MAY NOT ACCOUNT FOR THE FACT THAT MY UNCLE
 SOL INDULGED IN THAT POSSIBLY MOST INEXCUSABLE
 OF ALL TO USE A HIGHFALOOTIN PHRASE
 LUXURIES THAT IS OR TO
 WIT FARMING AND BE
 IT NEEDLESSLY
 ADDED
 MY UNCLE SOL'S FARM
 FAILED BECAUSE THE CHICKENS
 ATE THE VEGETABLES SO
 MY UNCLE SOL HAD A
 CHICKEN FARM TILL THE
 SKUNKS ATE THE CHICKENS WHEN 
 MY UNCLE SOL
 HAD A SKUNK FARM BUT
 THE SKUNKS CAUGHT COLD AND
 DIED AND SO
 MY UNCLE SOL IMITATED THE
 SKUNKS IN A SUBTLE MANNER
 OR BY DROWNING HIMSELF IN THE WATERTANK
 BUT SOMEBODY WHO'D GIVEN MY UNCLE SOL A VICTOR
 VICTROLA AND RECORDS WHILE HE LIVED PRESENTED TO
 HIM UPON THE AUSPICIOUS OCCASION OF HIS DECEASE A
 SCRUMPTIOUS NOT TO MENTION SPLENDIFEROUS FUNERAL WITH
 TALL BOYS IN BLACK GLOVES AND FLOWERS AND EVERYTHING AND
 I REMEMBER WE ALL CRIED LIKE THE MISSOURI
 WHEN MY UNCLE SOL'S COFFIN LURCHED BECAUSE
 SOMEBODY PRESSED A BUTTON
 (AND DOWN WENT
 MY UNCLE
 SOL
 AND STARTED A WORM FARM)
           E. E. CUMMINGS
 Job cpu time:  0 days  0 hours  3 minutes 28.1 seconds.
 File lengths (MBytes):  RWF=     47 Int=      0 D2E=      0 Chk=      5 Scr=      1
 Normal termination of Gaussian 09 at Mon Jun  8 05:50:19 2026.
