 Entering Gaussian System, Link 0=/data/opt/apps/g09-C01/g09
 Initial command:
 /data/opt/apps/g09-C01/l1.exe /tmp/g09-tuu61186-120612e956b4d176x/Gau-120743.inp -scrdir=/tmp/g09-tuu61186-120612e956b4d176x/
 Entering Link 1 = /data/opt/apps/g09-C01/l1.exe PID=    120756.
  
 Copyright (c) 1988,1990,1992,1993,1995,1998,2003,2009,2011,
            Gaussian, Inc.  All Rights Reserved.
  
 This is part of the Gaussian(R) 09 program.  It is based on
 the Gaussian(R) 03 system (copyright 2003, Gaussian, Inc.),
 the Gaussian(R) 98 system (copyright 1998, Gaussian, Inc.),
 the Gaussian(R) 94 system (copyright 1995, Gaussian, Inc.),
 the Gaussian 92(TM) system (copyright 1992, Gaussian, Inc.),
 the Gaussian 90(TM) system (copyright 1990, Gaussian, Inc.),
 the Gaussian 88(TM) system (copyright 1988, Gaussian, Inc.),
 the Gaussian 86(TM) system (copyright 1986, Carnegie Mellon
 University), and the Gaussian 82(TM) system (copyright 1983,
 Carnegie Mellon University). Gaussian is a federally registered
 trademark of Gaussian, Inc.
  
 This software contains proprietary and confidential information,
 including trade secrets, belonging to Gaussian, Inc.
  
 This software is provided under written license and may be
 used, copied, transmitted, or stored only in accord with that
 written license.
  
 The following legend is applicable only to US Government
 contracts under FAR:
  
                    RESTRICTED RIGHTS LEGEND
  
 Use, reproduction and disclosure by the US Government is
 subject to restrictions as set forth in subparagraphs (a)
 and (c) of the Commercial Computer Software - Restricted
 Rights clause in FAR 52.227-19.
  
 Gaussian, Inc.
 340 Quinnipiac St., Bldg. 40, Wallingford CT 06492
  
  
 ---------------------------------------------------------------
 Warning -- This program may not be used in any manner that
 competes with the business of Gaussian, Inc. or will provide
 assistance to any competitor of Gaussian, Inc.  The licensee
 of this program is prohibited from giving any competitor of
 Gaussian, Inc. access to this program.  By using this program,
 the user acknowledges that Gaussian, Inc. is engaged in the
 business of creating and licensing software in the field of
 computational chemistry and represents and warrants to the
 licensee that it is not a competitor of Gaussian, Inc. and that
 it will not use this program in any manner prohibited above.
 ---------------------------------------------------------------
  

 Cite this work as:
 Gaussian 09, Revision C.01,
 M. J. Frisch, G. W. Trucks, H. B. Schlegel, G. E. Scuseria, 
 M. A. Robb, J. R. Cheeseman, G. Scalmani, V. Barone, B. Mennucci, 
 G. A. Petersson, H. Nakatsuji, M. Caricato, X. Li, H. P. Hratchian, 
 A. F. Izmaylov, J. Bloino, G. Zheng, J. L. Sonnenberg, M. Hada, 
 M. Ehara, K. Toyota, R. Fukuda, J. Hasegawa, M. Ishida, T. Nakajima, 
 Y. Honda, O. Kitao, H. Nakai, T. Vreven, J. A. Montgomery, Jr., 
 J. E. Peralta, F. Ogliaro, M. Bearpark, J. J. Heyd, E. Brothers, 
 K. N. Kudin, V. N. Staroverov, T. Keith, R. Kobayashi, J. Normand, 
 K. Raghavachari, A. Rendell, J. C. Burant, S. S. Iyengar, J. Tomasi, 
 M. Cossi, N. Rega, J. M. Millam, M. Klene, J. E. Knox, J. B. Cross, 
 V. Bakken, C. Adamo, J. Jaramillo, R. Gomperts, R. E. Stratmann, 
 O. Yazyev, A. J. Austin, R. Cammi, C. Pomelli, J. W. Ochterski, 
 R. L. Martin, K. Morokuma, V. G. Zakrzewski, G. A. Voth, 
 P. Salvador, J. J. Dannenberg, S. Dapprich, A. D. Daniels, 
 O. Farkas, J. B. Foresman, J. V. Ortiz, J. Cioslowski, 
 and D. J. Fox, Gaussian, Inc., Wallingford CT, 2010.
 
 ******************************************
 Gaussian 09:  EM64L-G09RevC.01 23-Sep-2011
                 8-Jun-2026 
 ******************************************
 %nprocshared=8
 Will use up to    8 processors via shared memory.
 %mem=14GB
 ------------------
 # b3lyp/6-31g(d,p)
 ------------------
 1/38=1/1;
 2/12=2,17=6,18=5,40=1/2;
 3/5=1,6=6,7=101,11=2,16=1,25=1,30=1,74=-5/1,2,3;
 4//1;
 5/5=2,38=5/2;
 6/7=2,8=2,9=2,10=2,28=1/1;
 99/5=1,9=1/99;
 -----------------
 Generated by mdgx
 -----------------
 Charge =  0 Multiplicity = 1
 Symbolic Z-Matrix:
 C                     11.9292   19.18513   15.05974 
 N                     12.45765   18.17822   16.00198 
 C                     12.79882   18.6932   17.3408 
 C                     12.44665   16.80393   15.74268 
 O                     12.52278   15.97535   16.63375 
 C                     12.49068   16.36137   14.2706 
 N                     13.87765   16.15712   13.82049 
 C                     14.67881   17.25006   13.24083 
 C                     14.35979   14.81344   13.44178 
 C                     14.89814   14.03547   14.63808 
 C                     14.10188   13.03696   15.22891 
 C                     14.57477   12.30404   16.32927 
 C                     15.8522   12.56017   16.8487 
 C                     16.6588   13.54771   16.26385 
 C                     16.18554   14.2796   15.16161 
 F                     16.98317   15.2165   14.60613 
 H                     10.98602   18.82751   14.62806 
 H                     12.65352   19.363    14.25676 
 H                     11.73623   20.13174   15.58042 
 H                     13.17818   19.72012   17.2647 
 H                     13.57558   18.06557   17.79563 
 H                     11.90471   18.68143   17.9765 
 H                     11.98324   17.0861   13.62415 
 H                     11.93272   15.41877   14.20108 
 H                     14.53355   17.29091   12.15408 
 H                     15.74542   17.093    13.43924 
 H                     14.39126   18.21283   13.67752 
 H                     15.15494   14.8895   12.68934 
 H                     13.54192   14.24692   12.97944 
 H                     13.10724   12.83403   14.84173 
 H                     13.94927   11.53925   16.78028 
 H                     16.21648   11.99345   17.70068 
 H                     17.64907   13.74211   16.66507 
 
                          Input orientation:                          
 ---------------------------------------------------------------------
 Center     Atomic      Atomic             Coordinates (Angstroms)
 Number     Number       Type             X           Y           Z
 ---------------------------------------------------------------------
      1          6           0       11.929204   19.185126   15.059736
      2          7           0       12.457650   18.178216   16.001982
      3          6           0       12.798824   18.693198   17.340800
      4          6           0       12.446648   16.803934   15.742679
      5          8           0       12.522783   15.975351   16.633755
      6          6           0       12.490680   16.361367   14.270602
      7          7           0       13.877649   16.157123   13.820491
      8          6           0       14.678812   17.250063   13.240833
      9          6           0       14.359790   14.813436   13.441779
     10          6           0       14.898143   14.035472   14.638078
     11          6           0       14.101880   13.036957   15.228913
     12          6           0       14.574773   12.304036   16.329268
     13          6           0       15.852204   12.560175   16.848700
     14          6           0       16.658799   13.547711   16.263845
     15          6           0       16.185537   14.279597   15.161610
     16          9           0       16.983169   15.216501   14.606132
     17          1           0       10.986021   18.827506   14.628065
     18          1           0       12.653520   19.363004   14.256763
     19          1           0       11.736234   20.131736   15.580422
     20          1           0       13.178182   19.720121   17.264697
     21          1           0       13.575579   18.065575   17.795626
     22          1           0       11.904707   18.681432   17.976502
     23          1           0       11.983235   17.086103   13.624151
     24          1           0       11.932725   15.418766   14.201085
     25          1           0       14.533549   17.290911   12.154084
     26          1           0       15.745417   17.093003   13.439235
     27          1           0       14.391256   18.212830   13.677524
     28          1           0       15.154945   14.889497   12.689338
     29          1           0       13.541917   14.246917   12.979442
     30          1           0       13.107245   12.834025   14.841729
     31          1           0       13.949275   11.539254   16.780285
     32          1           0       16.216482   11.993446   17.700681
     33          1           0       17.649068   13.742113   16.665070
 ---------------------------------------------------------------------
                    Distance matrix (angstroms):
                    1          2          3          4          5
     1  C    0.000000
     2  N    1.476805   0.000000
     3  C    2.490279   1.474462   0.000000
     4  C    2.530658   1.398574   2.499467   0.000000
     5  O    3.623883   2.292595   2.821844   1.219165   0.000000
     6  C    2.985230   2.509922   3.867623   1.537796   2.394688
     7  N    3.808014   3.295469   4.470807   2.482123   3.127803
     8  C    3.822724   3.663191   4.735686   3.382428   4.217258
     9  C    5.257110   4.636218   5.717651   3.593931   3.861780
    10  C    5.959138   4.997856   5.779814   3.859320   3.658987
    11  C    6.522969   5.452859   6.176656   4.146549   3.619570
    12  C    7.480651   6.252624   6.708098   5.012194   4.216862
    13  C    7.904448   6.618332   6.868716   5.552530   4.774377
    14  C    7.456500   6.257779   6.521907   5.349470   4.810083
    15  C    6.495457   5.459176   5.974828   4.548540   4.296342
    16  F    6.441918   5.585739   6.088889   4.938797   4.958039
    17  H    1.097190   2.115401   3.265460   2.733247   3.810409
    18  H    1.095919   2.118461   3.159278   2.966409   4.140456
    19  H    1.097462   2.124711   2.509467   3.406652   4.359324
    20  H    2.589985   2.119219   1.097395   3.369841   3.853692
    21  H    3.383643   2.116509   1.097326   2.660980   2.612921
    22  H    2.960039   2.111326   1.097133   2.967939   3.083482
    23  H    2.543565   2.659298   4.130548   2.186900   3.253091
    24  H    3.862999   3.336666   4.618424   2.135257   2.564340
    25  H    4.337450   4.461277   5.646034   4.179751   5.083437
    26  H    4.643973   4.307525   5.144438   4.033769   4.673272
    27  H    2.986229   3.023761   4.023205   3.167231   4.151722
    28  H    5.871679   5.391167   6.454110   4.508086   4.864748
    29  H    5.595924   5.076071   6.272403   3.920897   4.168947
    30  H    6.463110   5.507135   6.377333   4.124110   3.663452
    31  H    8.093228   6.848833   7.267505   5.572376   4.662114
    32  H    8.779271   7.434095   7.529713   6.417649   5.535098
    33  H    8.057315   6.860722   6.963814   6.106613   5.591701
                    6          7          8          9         10
     6  C    0.000000
     7  N    1.472413   0.000000
     8  C    2.576456   1.473901   0.000000
     9  C    2.564490   1.476948   2.465625   0.000000
    10  C    3.367596   2.492239   3.511978   1.525183   0.000000
    11  C    3.816547   3.430651   4.694206   2.533030   1.407179
    12  C    5.004347   4.650400   5.832018   3.831565   2.441836
    13  C    5.691705   5.099701   6.032297   4.348746   2.823754
    14  C    5.409520   4.529217   5.173622   3.853772   2.445597
    15  C    4.333548   3.263442   3.844902   2.564402   1.411052
    16  F    4.648200   3.338601   3.362957   2.898327   2.396494
    17  H    2.910948   4.018039   4.248464   5.376091   6.186145
    18  H    3.006083   3.459263   3.098135   4.926878   5.793645
    19  H    4.062080   4.845675   4.736716   6.304058   6.931818
    20  H    4.551757   5.004675   4.954247   6.331387   6.494046
    21  H    4.062896   4.419857   4.756923   5.490663   5.287817
    22  H    4.411321   5.247577   5.671951   6.446125   6.456831
    23  H    1.095738   2.119046   2.727626   3.293370   4.339479
    24  H    1.097562   2.114888   3.437546   2.614118   3.301237
    25  H    3.084966   2.119574   1.097175   2.797541   4.111087
    26  H    3.437991   2.123626   1.096211   2.667658   3.391695
    27  H    2.718795   2.123715   1.095586   3.407704   4.316239
    28  H    3.430030   2.125527   2.470449   1.097372   2.143104
    29  H    2.691300   2.113993   3.221760   1.097094   2.152935
    30  H    3.626084   3.560818   4.953189   2.728882   2.166164
    31  H    5.628391   5.485455   6.758201   4.694082   3.423523
    32  H    6.687734   6.153228   7.063051   5.434878   3.909914
    33  H    6.261225   5.305422   5.731800   4.728286   3.429628
                   11         12         13         14         15
    11  C    0.000000
    12  C    1.404130   0.000000
    13  C    2.432009   1.402586   0.000000
    14  C    2.805315   2.427792   1.402811   0.000000
    15  C    2.426997   2.803716   2.431830   1.405189   0.000000
    16  F    3.666074   4.153555   3.655716   2.374466   1.350023
    17  H    6.603034   7.637336   8.239564   7.920381   6.928429
    18  H    6.562141   7.603651   7.951617   7.340863   6.255791
    19  H    7.487037   8.360081   8.710814   8.249127   7.363371
    20  H    7.047150   7.604197   7.654298   7.156469   6.562505
    21  H    5.670274   6.028592   6.032340   5.680114   5.299392
    22  H    6.651083   7.107306   7.370513   7.203448   6.754648
    23  H    4.843501   6.074692   6.771312   6.430327   5.282007
    24  H    3.381521   4.605554   5.526638   5.485582   4.506299
    25  H    5.266597   6.504059   6.793978   5.951334   4.565336
    26  H    4.728178   5.714621   5.672952   4.624044   3.327993
    27  H    5.411119   6.479141   6.644038   5.796046   4.570807
    28  H    3.315161   4.502255   4.817905   4.103544   2.747040
    29  H    2.614896   4.007856   4.811828   4.581610   3.428069
    30  H    1.086459   2.155759   3.411412   3.891697   3.415829
    31  H    2.161749   1.086074   2.160579   3.412057   3.889789
    32  H    3.416152   2.161585   1.086164   2.162379   3.416771
    33  H    3.891315   3.410589   2.158568   1.086004   2.165918
                   16         17         18         19         20
    16  F    0.000000
    17  H    7.000402   0.000000
    18  H    6.005115   1.790301   0.000000
    19  H    7.255281   1.780679   1.784498   0.000000
    20  H    6.467495   3.543185   3.074162   2.255089   0.000000
    21  H    5.468251   4.161706   3.880344   3.543916   1.782508
    22  H    7.011128   3.475249   3.855090   2.805881   1.790888
    23  H    5.427618   2.243829   2.456371   3.628207   4.649681
    24  H    5.070697   3.563435   4.009945   4.914597   5.425729
    25  H    4.039351   4.589844   3.499906   5.256905   5.818630
    26  H    2.532773   5.203237   3.921873   5.467369   5.303452
    27  H    4.069191   3.588451   2.162902   3.788451   4.075694
    28  H    2.668976   6.053636   5.359684   6.893984   6.940924
    29  H    3.927904   5.498396   5.347443   6.682565   6.960724
    30  H    4.555709   6.361373   6.570816   7.462032   7.300283
    31  H    5.239618   8.156687   8.322152   8.953657   8.231393
    32  H    4.533445   9.138002   8.880634   9.528897   8.314016
    33  H    2.618485   8.625938   7.896192   8.772989   7.488989
                   21         22         23         24         25
    21  H    0.000000
    22  H    1.789918   0.000000
    23  H    4.571229   4.636184   0.000000
    24  H    4.756605   4.989944   1.765054   0.000000
    25  H    5.774497   6.537959   2.950787   3.802555   0.000000
    26  H    4.963087   6.153125   3.766730   4.233215   1.777472
    27  H    4.200688   4.988358   2.659121   3.758361   1.786352
    28  H    6.217398   7.273026   3.969722   3.598362   2.537601
    29  H    6.146455   6.878662   3.302441   2.335625   3.306123
    30  H    6.026106   6.742778   4.563558   2.910466   5.396445
    31  H    6.615393   7.524752   6.677876   5.076353   7.404369
    32  H    6.622245   7.962200   7.776480   6.506195   7.852397
    33  H    6.046800   7.688589   7.247835   6.446624   6.530652
                   26         27         28         29         30
    26  H    0.000000
    27  H    1.773287   0.000000
    28  H    2.401341   3.550250   0.000000
    29  H    3.628640   4.115478   1.760378   0.000000
    30  H    5.202484   5.651159   3.612593   2.377671   0.000000
    31  H    6.725539   7.372862   5.423432   4.684420   2.478598
    32  H    6.662380   7.628760   5.884517   5.875503   4.306685
    33  H    5.025769   6.286977   4.831520   5.541423   4.977685
                   31         32         33
    31  H    0.000000
    32  H    2.488704   0.000000
    33  H    4.307474   2.486489   0.000000
 Stoichiometry    C12H17FN2O
 Framework group  C1[X(C12H17FN2O)]
 Deg. of freedom    93
 Full point group                 C1      NOp   1
 Largest Abelian subgroup         C1      NOp   1
 Largest concise Abelian subgroup C1      NOp   1
                         Standard orientation:                         
 ---------------------------------------------------------------------
 Center     Atomic      Atomic             Coordinates (Angstroms)
 Number     Number       Type             X           Y           Z
 ---------------------------------------------------------------------
      1          6           0       -4.140441    0.165135    0.037709
      2          7           0       -2.994626   -0.720719    0.326368
      3          6           0       -3.214312   -1.693070    1.412788
      4          6           0       -1.859548   -0.797326   -0.487104
      5          8           0       -1.113071   -1.761081   -0.469488
      6          6           0       -1.489436    0.451492   -1.304593
      7          7           0       -0.559872    1.316119   -0.558719
      8          6           0       -1.037001    2.375439    0.348239
      9          6           0        0.820343    1.533249   -1.037509
     10          6           0        1.784819    0.472328   -0.517495
     11          6           0        2.186144   -0.574218   -1.368277
     12          6           0        3.075414   -1.562014   -0.915462
     13          6           0        3.575966   -1.511342    0.393784
     14          6           0        3.189592   -0.468912    1.249316
     15          6           0        2.300952    0.520219    0.794900
     16          9           0        1.952277    1.521503    1.630615
     17          1           0       -4.370358    0.133617   -1.034659
     18          1           0       -3.900988    1.194060    0.329280
     19          1           0       -5.027756   -0.164314    0.593188
     20          1           0       -3.861632   -1.257064    2.184249
     21          1           0       -2.254977   -1.963108    1.872006
     22          1           0       -3.688632   -2.595123    1.006561
     23          1           0       -2.383880    1.014282   -1.594212
     24          1           0       -1.013348    0.101297   -2.229443
     25          1           0       -1.168302    3.315056   -0.202827
     26          1           0       -0.313640    2.547709    1.153690
     27          1           0       -1.991359    2.091284    0.805146
     28          1           0        1.184575    2.519393   -0.722741
     29          1           0        0.833268    1.528230   -2.134515
     30          1           0        1.799588   -0.630067   -2.382105
     31          1           0        3.374139   -2.367881   -1.579463
     32          1           0        4.262843   -2.276681    0.743366
     33          1           0        3.581063   -0.429257    2.261533
 ---------------------------------------------------------------------
 Rotational constants (GHZ):      0.8196930      0.3225984      0.2912511
 Standard basis: 6-31G(d,p) (6D, 7F)
 There are   325 symmetry adapted basis functions of A   symmetry.
 Integral buffers will be    131072 words long.
 Raffenetti 2 integral format.
 Two-electron integral symmetry is turned on.
   325 basis functions,   567 primitive gaussians,   325 cartesian basis functions
    60 alpha electrons       60 beta electrons
       nuclear repulsion energy      1127.8083766526 Hartrees.
 NAtoms=   33 NActive=   33 NUniq=   33 SFac= 1.00D+00 NAtFMM=   60 NAOKFM=F Big=F
 One-electron integrals computed using PRISM.
 NBasis=   325 RedAO= T  NBF=   325
 NBsUse=   325 1.00D-06 NBFU=   325
 Harris functional with IExCor=  402 diagonalized for initial guess.
 ExpMin= 1.61D-01 ExpMax= 7.00D+03 ExpMxC= 1.05D+03 IAcc=1 IRadAn=         1 AccDes= 0.00D+00
 HarFok:  IExCor=  402 AccDes= 0.00D+00 IRadAn=         1 IDoV= 1
 ScaDFX=  1.000000  1.000000  1.000000  1.000000
 FoFCou: FMM=F IPFlag=           0 FMFlag=      100000 FMFlg1=           0
         NFxFlg=           0 DoJE=T BraDBF=F KetDBF=T FulRan=T
         Omega=  0.000000  0.000000  1.000000  0.000000  0.000000 ICntrl=     500 IOpCl=  0
         NMat0=    1 NMatS0=    1 NMatT0=    0 NMatD0=    1 NMtDS0=    0 NMtDT0=    0
         I1Cent=           4 NGrid=           0.
 Petite list used in FoFCou.
 Initial guess orbital symmetries:
       Occupied  (A) (A) (A) (A) (A) (A) (A) (A) (A) (A) (A) (A)
                 (A) (A) (A) (A) (A) (A) (A) (A) (A) (A) (A) (A)
                 (A) (A) (A) (A) (A) (A) (A) (A) (A) (A) (A) (A)
                 (A) (A) (A) (A) (A) (A) (A) (A) (A) (A) (A) (A)
                 (A) (A) (A) (A) (A) (A) (A) (A) (A) (A) (A) (A)
       Virtual   (A) (A) (A) (A) (A) (A) (A) (A) (A) (A) (A) (A)
                 (A) (A) (A) (A) (A) (A) (A) (A) (A) (A) (A) (A)
                 (A) (A) (A) (A) (A) (A) (A) (A) (A) (A) (A) (A)
                 (A) (A) (A) (A) (A) (A) (A) (A) (A) (A) (A) (A)
                 (A) (A) (A) (A) (A) (A) (A) (A) (A) (A) (A) (A)
                 (A) (A) (A) (A) (A) (A) (A) (A) (A) (A) (A) (A)
                 (A) (A) (A) (A) (A) (A) (A) (A) (A) (A) (A) (A)
                 (A) (A) (A) (A) (A) (A) (A) (A) (A) (A) (A) (A)
                 (A) (A) (A) (A) (A) (A) (A) (A) (A) (A) (A) (A)
                 (A) (A) (A) (A) (A) (A) (A) (A) (A) (A) (A) (A)
                 (A) (A) (A) (A) (A) (A) (A) (A) (A) (A) (A) (A)
                 (A) (A) (A) (A) (A) (A) (A) (A) (A) (A) (A) (A)
                 (A) (A) (A) (A) (A) (A) (A) (A) (A) (A) (A) (A)
                 (A) (A) (A) (A) (A) (A) (A) (A) (A) (A) (A) (A)
                 (A) (A) (A) (A) (A) (A) (A) (A) (A) (A) (A) (A)
                 (A) (A) (A) (A) (A) (A) (A) (A) (A) (A) (A) (A)
                 (A) (A) (A) (A) (A) (A) (A) (A) (A) (A) (A) (A)
                 (A) (A) (A) (A) (A) (A) (A) (A) (A) (A) (A) (A)
                 (A) (A) (A) (A) (A) (A) (A) (A) (A) (A) (A) (A)
                 (A) (A) (A) (A) (A) (A) (A) (A) (A) (A) (A) (A)
                 (A) (A) (A) (A) (A) (A) (A) (A) (A) (A) (A) (A)
                 (A) (A) (A) (A) (A) (A) (A) (A) (A) (A) (A) (A)
                 (A)
 The electronic state of the initial guess is 1-A.
 Requested convergence on RMS density matrix=1.00D-08 within 128 cycles.
 Requested convergence on MAX density matrix=1.00D-06.
 Requested convergence on             energy=1.00D-06.
 No special actions if energy rises.
 Keep R1 ints in memory in canonical form, NReq=1421145311.
 Integral accuracy reduced to 1.0D-05 until final iterations.
 Initial convergence to 1.0D-05 achieved.  Increase integral accuracy.
 SCF Done:  E(RB3LYP) =  -752.069535117     A.U. after   15 cycles
             Convg  =    0.7429D-08             -V/T =  2.0098

 **********************************************************************

            Population analysis using the SCF density.

 **********************************************************************

 Orbital symmetries:
       Occupied  (A) (A) (A) (A) (A) (A) (A) (A) (A) (A) (A) (A)
                 (A) (A) (A) (A) (A) (A) (A) (A) (A) (A) (A) (A)
                 (A) (A) (A) (A) (A) (A) (A) (A) (A) (A) (A) (A)
                 (A) (A) (A) (A) (A) (A) (A) (A) (A) (A) (A) (A)
                 (A) (A) (A) (A) (A) (A) (A) (A) (A) (A) (A) (A)
       Virtual   (A) (A) (A) (A) (A) (A) (A) (A) (A) (A) (A) (A)
                 (A) (A) (A) (A) (A) (A) (A) (A) (A) (A) (A) (A)
                 (A) (A) (A) (A) (A) (A) (A) (A) (A) (A) (A) (A)
                 (A) (A) (A) (A) (A) (A) (A) (A) (A) (A) (A) (A)
                 (A) (A) (A) (A) (A) (A) (A) (A) (A) (A) (A) (A)
                 (A) (A) (A) (A) (A) (A) (A) (A) (A) (A) (A) (A)
                 (A) (A) (A) (A) (A) (A) (A) (A) (A) (A) (A) (A)
                 (A) (A) (A) (A) (A) (A) (A) (A) (A) (A) (A) (A)
                 (A) (A) (A) (A) (A) (A) (A) (A) (A) (A) (A) (A)
                 (A) (A) (A) (A) (A) (A) (A) (A) (A) (A) (A) (A)
                 (A) (A) (A) (A) (A) (A) (A) (A) (A) (A) (A) (A)
                 (A) (A) (A) (A) (A) (A) (A) (A) (A) (A) (A) (A)
                 (A) (A) (A) (A) (A) (A) (A) (A) (A) (A) (A) (A)
                 (A) (A) (A) (A) (A) (A) (A) (A) (A) (A) (A) (A)
                 (A) (A) (A) (A) (A) (A) (A) (A) (A) (A) (A) (A)
                 (A) (A) (A) (A) (A) (A) (A) (A) (A) (A) (A) (A)
                 (A) (A) (A) (A) (A) (A) (A) (A) (A) (A) (A) (A)
                 (A) (A) (A) (A) (A) (A) (A) (A) (A) (A) (A) (A)
                 (A) (A) (A) (A) (A) (A) (A) (A) (A) (A) (A) (A)
                 (A) (A) (A) (A) (A) (A) (A) (A) (A) (A) (A) (A)
                 (A) (A) (A) (A) (A) (A) (A) (A) (A) (A) (A) (A)
                 (A) (A) (A) (A) (A) (A) (A) (A) (A) (A) (A) (A)
                 (A)
 The electronic state is 1-A.
 Alpha  occ. eigenvalues --  -24.70252 -19.09970 -14.35433 -14.32158 -10.27097
 Alpha  occ. eigenvalues --  -10.26334 -10.22644 -10.21812 -10.21573 -10.21285
 Alpha  occ. eigenvalues --  -10.20399 -10.19081 -10.18792 -10.18732 -10.18624
 Alpha  occ. eigenvalues --  -10.18166  -1.21209  -1.01840  -0.91476  -0.90271
 Alpha  occ. eigenvalues --   -0.84291  -0.76229  -0.73465  -0.73138  -0.71467
 Alpha  occ. eigenvalues --   -0.68944  -0.67481  -0.61220  -0.60518  -0.57801
 Alpha  occ. eigenvalues --   -0.53336  -0.52664  -0.49382  -0.48509  -0.48032
 Alpha  occ. eigenvalues --   -0.47197  -0.46732  -0.45645  -0.44714  -0.44538
 Alpha  occ. eigenvalues --   -0.43316  -0.42329  -0.41125  -0.40663  -0.39974
 Alpha  occ. eigenvalues --   -0.39725  -0.39337  -0.38267  -0.37617  -0.36948
 Alpha  occ. eigenvalues --   -0.36515  -0.34561  -0.34252  -0.33796  -0.33093
 Alpha  occ. eigenvalues --   -0.24593  -0.24182  -0.22949  -0.22558  -0.18608
 Alpha virt. eigenvalues --    0.00178   0.00938   0.02348   0.07581   0.09378
 Alpha virt. eigenvalues --    0.10283   0.11640   0.12981   0.13200   0.13823
 Alpha virt. eigenvalues --    0.14478   0.15007   0.15393   0.15985   0.16174
 Alpha virt. eigenvalues --    0.16626   0.16820   0.17345   0.18296   0.18656
 Alpha virt. eigenvalues --    0.19173   0.20260   0.21512   0.22592   0.24445
 Alpha virt. eigenvalues --    0.25462   0.27803   0.28240   0.29773   0.30971
 Alpha virt. eigenvalues --    0.32415   0.33219   0.35735   0.35915   0.39453
 Alpha virt. eigenvalues --    0.47547   0.48474   0.49193   0.49834   0.51210
 Alpha virt. eigenvalues --    0.51772   0.51825   0.53618   0.53921   0.54994
 Alpha virt. eigenvalues --    0.55580   0.56683   0.57921   0.59779   0.60553
 Alpha virt. eigenvalues --    0.60812   0.61327   0.61473   0.61837   0.62457
 Alpha virt. eigenvalues --    0.62918   0.64011   0.65990   0.67221   0.67724
 Alpha virt. eigenvalues --    0.69059   0.71002   0.73271   0.73743   0.75314
 Alpha virt. eigenvalues --    0.77801   0.78960   0.79422   0.80819   0.81165
 Alpha virt. eigenvalues --    0.81574   0.83266   0.83719   0.84132   0.84699
 Alpha virt. eigenvalues --    0.84930   0.85372   0.86714   0.87601   0.88297
 Alpha virt. eigenvalues --    0.89051   0.89811   0.90218   0.91478   0.92901
 Alpha virt. eigenvalues --    0.94064   0.94416   0.94986   0.96443   0.96596
 Alpha virt. eigenvalues --    0.98974   1.00230   1.01636   1.04195   1.04407
 Alpha virt. eigenvalues --    1.07710   1.08681   1.09644   1.11626   1.14856
 Alpha virt. eigenvalues --    1.17262   1.19428   1.21702   1.22951   1.24322
 Alpha virt. eigenvalues --    1.25651   1.26182   1.26940   1.30941   1.32684
 Alpha virt. eigenvalues --    1.34711   1.35998   1.36290   1.40806   1.40936
 Alpha virt. eigenvalues --    1.41449   1.41826   1.43014   1.44015   1.45381
 Alpha virt. eigenvalues --    1.48908   1.51324   1.52867   1.55788   1.58544
 Alpha virt. eigenvalues --    1.60814   1.63939   1.68881   1.69885   1.73077
 Alpha virt. eigenvalues --    1.75046   1.76080   1.76536   1.79035   1.80814
 Alpha virt. eigenvalues --    1.82259   1.83016   1.83823   1.84569   1.86093
 Alpha virt. eigenvalues --    1.87568   1.88306   1.90016   1.91155   1.91958
 Alpha virt. eigenvalues --    1.92251   1.93435   1.94183   1.94933   1.95521
 Alpha virt. eigenvalues --    1.96182   1.97216   1.98194   1.99921   2.00228
 Alpha virt. eigenvalues --    2.01249   2.02305   2.02431   2.03886   2.04641
 Alpha virt. eigenvalues --    2.04782   2.06025   2.07409   2.08739   2.09200
 Alpha virt. eigenvalues --    2.09880   2.11317   2.13870   2.14772   2.18079
 Alpha virt. eigenvalues --    2.19362   2.22796   2.24230   2.24933   2.26049
 Alpha virt. eigenvalues --    2.27815   2.29429   2.29894   2.31210   2.31950
 Alpha virt. eigenvalues --    2.33414   2.34473   2.35566   2.39051   2.39161
 Alpha virt. eigenvalues --    2.39392   2.40850   2.42060   2.43346   2.44480
 Alpha virt. eigenvalues --    2.46689   2.47829   2.48631   2.50253   2.52183
 Alpha virt. eigenvalues --    2.53377   2.54480   2.56025   2.57829   2.58682
 Alpha virt. eigenvalues --    2.59541   2.60702   2.62995   2.63436   2.63991
 Alpha virt. eigenvalues --    2.64998   2.66650   2.67414   2.69383   2.71095
 Alpha virt. eigenvalues --    2.73101   2.75716   2.76514   2.78869   2.79892
 Alpha virt. eigenvalues --    2.81805   2.83624   2.85323   2.86185   2.87212
 Alpha virt. eigenvalues --    2.90147   2.92069   2.94297   2.98718   3.00709
 Alpha virt. eigenvalues --    3.04982   3.08001   3.09615   3.11234   3.11822
 Alpha virt. eigenvalues --    3.17490   3.18727   3.21185   3.23040   3.24494
 Alpha virt. eigenvalues --    3.28314   3.34171   3.34889   3.36385   3.40549
 Alpha virt. eigenvalues --    3.41617   3.42885   3.44130   3.44408   3.47149
 Alpha virt. eigenvalues --    3.47517   3.48841   3.49632   3.84180   3.97132
 Alpha virt. eigenvalues --    4.01512   4.12417   4.15018   4.17399   4.21210
 Alpha virt. eigenvalues --    4.35079   4.40234   4.43791   4.48841   4.50423
 Alpha virt. eigenvalues --    4.54693   4.60160   4.68220   4.81119   5.52610
          Condensed to atoms (all electrons):
              1          2          3          4          5          6
     1  C    4.815146   0.276548  -0.048582  -0.017684   0.002656  -0.000511
     2  N    0.276548   7.081359   0.278791   0.252645  -0.098914  -0.110104
     3  C   -0.048582   0.278791   4.786207  -0.021866   0.006682   0.006051
     4  C   -0.017684   0.252645  -0.021866   4.439521   0.581579   0.334402
     5  O    0.002656  -0.098914   0.006682   0.581579   8.068465  -0.076800
     6  C   -0.000511  -0.110104   0.006051   0.334402  -0.076800   4.995168
     7  N   -0.000092  -0.000401  -0.000244  -0.056716  -0.001533   0.334965
     8  C   -0.001903   0.000158  -0.000020  -0.000394  -0.000003  -0.042378
     9  C    0.000003  -0.000037   0.000005   0.001345  -0.000798  -0.031613
    10  C    0.000000   0.000002   0.000000   0.001469   0.000582   0.001009
    11  C    0.000000   0.000011   0.000000   0.000316   0.001404   0.001181
    12  C    0.000000   0.000000   0.000000  -0.000021  -0.000162   0.000001
    13  C    0.000000   0.000000   0.000000  -0.000003   0.000010  -0.000001
    14  C    0.000000   0.000000   0.000000   0.000002  -0.000004  -0.000006
    15  C    0.000000  -0.000003   0.000000   0.000105  -0.000044  -0.000329
    16  F    0.000000   0.000000   0.000000   0.000000   0.000000  -0.000008
    17  H    0.388593  -0.041336   0.003414  -0.003632   0.000220  -0.000695
    18  H    0.379778  -0.053143   0.002684  -0.001474  -0.000069  -0.001251
    19  H    0.387021  -0.027597  -0.006070   0.001271  -0.000077   0.000135
    20  H   -0.006093  -0.037184   0.380836   0.004467   0.000492  -0.000100
    21  H    0.004454  -0.035405   0.389825  -0.003072   0.008069   0.000254
    22  H    0.000877  -0.047328   0.389381  -0.003017   0.001228  -0.000149
    23  H    0.001194   0.001438  -0.000317  -0.045931   0.003896   0.333586
    24  H   -0.000272   0.004714  -0.000160  -0.034723   0.002547   0.356369
    25  H   -0.000020   0.000070  -0.000003  -0.000573  -0.000002  -0.002136
    26  H    0.000067  -0.000061   0.000005   0.000203   0.000013   0.003751
    27  H   -0.001847   0.003754   0.000055   0.001064  -0.000015  -0.001698
    28  H    0.000000   0.000003   0.000000  -0.000161  -0.000004   0.003594
    29  H    0.000001  -0.000006   0.000000  -0.000559   0.000023  -0.010394
    30  H    0.000000   0.000001   0.000000  -0.000036   0.000163  -0.000234
    31  H    0.000000   0.000000   0.000000  -0.000001  -0.000002   0.000001
    32  H    0.000000   0.000000   0.000000   0.000000   0.000000   0.000000
    33  H    0.000000   0.000000   0.000000   0.000000   0.000000   0.000000
              7          8          9         10         11         12
     1  C   -0.000092  -0.001903   0.000003   0.000000   0.000000   0.000000
     2  N   -0.000401   0.000158  -0.000037   0.000002   0.000011   0.000000
     3  C   -0.000244  -0.000020   0.000005   0.000000   0.000000   0.000000
     4  C   -0.056716  -0.000394   0.001345   0.001469   0.000316  -0.000021
     5  O   -0.001533  -0.000003  -0.000798   0.000582   0.001404  -0.000162
     6  C    0.334965  -0.042378  -0.031613   0.001009   0.001181   0.000001
     7  N    6.851227   0.326797   0.320565  -0.082618  -0.003678  -0.000079
     8  C    0.326797   4.801756  -0.044806   0.001681  -0.000063   0.000004
     9  C    0.320565  -0.044806   4.903524   0.330620  -0.047205   0.006240
    10  C   -0.082618   0.001681   0.330620   5.008589   0.517787  -0.024690
    11  C   -0.003678  -0.000063  -0.047205   0.517787   4.866416   0.518541
    12  C   -0.000079   0.000004   0.006240  -0.024690   0.518541   4.824320
    13  C   -0.000003   0.000000  -0.000104  -0.030167  -0.034201   0.542310
    14  C   -0.000005  -0.000026   0.007145  -0.069900  -0.043725  -0.028682
    15  C    0.001732   0.000861  -0.044405   0.434317  -0.011300  -0.043677
    16  F   -0.000138  -0.003902   0.002439  -0.056394   0.002460  -0.000065
    17  H   -0.000019   0.000034   0.000004   0.000000   0.000000   0.000000
    18  H    0.000199   0.001239  -0.000023   0.000000   0.000000   0.000000
    19  H   -0.000007   0.000027   0.000000   0.000000   0.000000   0.000000
    20  H    0.000009   0.000002   0.000000   0.000000   0.000000   0.000000
    21  H   -0.000022   0.000005  -0.000001   0.000002   0.000000   0.000000
    22  H   -0.000003   0.000000   0.000000   0.000000   0.000000   0.000000
    23  H   -0.045151  -0.004528   0.000423  -0.000220  -0.000029   0.000000
    24  H   -0.028476   0.004073  -0.006732  -0.001381   0.000538   0.000008
    25  H   -0.058158   0.370875  -0.007081  -0.000746  -0.000005   0.000000
    26  H   -0.040331   0.381701  -0.000978   0.000367  -0.000007   0.000002
    27  H   -0.034479   0.380066   0.004943  -0.000019   0.000007   0.000000
    28  H   -0.037146  -0.005471   0.375477  -0.042751   0.003350  -0.000232
    29  H   -0.041322   0.003378   0.360007  -0.048260  -0.007330   0.000151
    30  H    0.000391  -0.000009  -0.010474  -0.041799   0.366835  -0.040418
    31  H    0.000002   0.000000  -0.000155   0.004268  -0.036616   0.364722
    32  H    0.000000   0.000000   0.000004   0.000398   0.004741  -0.039295
    33  H    0.000005   0.000000  -0.000146   0.006044   0.000442   0.004767
             13         14         15         16         17         18
     1  C    0.000000   0.000000   0.000000   0.000000   0.388593   0.379778
     2  N    0.000000   0.000000  -0.000003   0.000000  -0.041336  -0.053143
     3  C    0.000000   0.000000   0.000000   0.000000   0.003414   0.002684
     4  C   -0.000003   0.000002   0.000105   0.000000  -0.003632  -0.001474
     5  O    0.000010  -0.000004  -0.000044   0.000000   0.000220  -0.000069
     6  C   -0.000001  -0.000006  -0.000329  -0.000008  -0.000695  -0.001251
     7  N   -0.000003  -0.000005   0.001732  -0.000138  -0.000019   0.000199
     8  C    0.000000  -0.000026   0.000861  -0.003902   0.000034   0.001239
     9  C   -0.000104   0.007145  -0.044405   0.002439   0.000004  -0.000023
    10  C   -0.030167  -0.069900   0.434317  -0.056394   0.000000   0.000000
    11  C   -0.034201  -0.043725  -0.011300   0.002460   0.000000   0.000000
    12  C    0.542310  -0.028682  -0.043677  -0.000065   0.000000   0.000000
    13  C    4.830611   0.493159  -0.014960   0.002700   0.000000   0.000000
    14  C    0.493159   5.025905   0.477344  -0.045569   0.000000   0.000000
    15  C   -0.014960   0.477344   4.615614   0.302199   0.000000   0.000000
    16  F    0.002700  -0.045569   0.302199   9.075207   0.000000   0.000000
    17  H    0.000000   0.000000   0.000000   0.000000   0.596306  -0.043028
    18  H    0.000000   0.000000   0.000000   0.000000  -0.043028   0.625845
    19  H    0.000000   0.000000   0.000000   0.000000  -0.026126  -0.032679
    20  H    0.000000   0.000000   0.000000   0.000000  -0.000092   0.001734
    21  H    0.000000   0.000000   0.000001   0.000000  -0.000251  -0.000026
    22  H    0.000000   0.000000   0.000000   0.000000   0.000535  -0.000554
    23  H    0.000000   0.000000   0.000005   0.000000   0.000173   0.001101
    24  H   -0.000001   0.000000   0.000016  -0.000001   0.000344  -0.000099
    25  H    0.000000   0.000000   0.000070   0.000043   0.000002   0.000026
    26  H   -0.000004   0.000100   0.000090   0.011050  -0.000002  -0.000048
    27  H    0.000000   0.000000  -0.000094   0.000022   0.000176   0.001169
    28  H   -0.000008   0.000096  -0.006245   0.003245   0.000000   0.000001
    29  H   -0.000012  -0.000167   0.004925   0.000127   0.000000   0.000000
    30  H    0.004830   0.000206   0.004191  -0.000019   0.000000   0.000000
    31  H   -0.041598   0.004640   0.000858   0.000001   0.000000   0.000000
    32  H    0.369521  -0.038441   0.003706  -0.000020   0.000000   0.000000
    33  H   -0.039938   0.354447  -0.033723  -0.000462   0.000000   0.000000
             19         20         21         22         23         24
     1  C    0.387021  -0.006093   0.004454   0.000877   0.001194  -0.000272
     2  N   -0.027597  -0.037184  -0.035405  -0.047328   0.001438   0.004714
     3  C   -0.006070   0.380836   0.389825   0.389381  -0.000317  -0.000160
     4  C    0.001271   0.004467  -0.003072  -0.003017  -0.045931  -0.034723
     5  O   -0.000077   0.000492   0.008069   0.001228   0.003896   0.002547
     6  C    0.000135  -0.000100   0.000254  -0.000149   0.333586   0.356369
     7  N   -0.000007   0.000009  -0.000022  -0.000003  -0.045151  -0.028476
     8  C    0.000027   0.000002   0.000005   0.000000  -0.004528   0.004073
     9  C    0.000000   0.000000  -0.000001   0.000000   0.000423  -0.006732
    10  C    0.000000   0.000000   0.000002   0.000000  -0.000220  -0.001381
    11  C    0.000000   0.000000   0.000000   0.000000  -0.000029   0.000538
    12  C    0.000000   0.000000   0.000000   0.000000   0.000000   0.000008
    13  C    0.000000   0.000000   0.000000   0.000000   0.000000  -0.000001
    14  C    0.000000   0.000000   0.000000   0.000000   0.000000   0.000000
    15  C    0.000000   0.000000   0.000001   0.000000   0.000005   0.000016
    16  F    0.000000   0.000000   0.000000   0.000000   0.000000  -0.000001
    17  H   -0.026126  -0.000092  -0.000251   0.000535   0.000173   0.000344
    18  H   -0.032679   0.001734  -0.000026  -0.000554   0.001101  -0.000099
    19  H    0.581169   0.000507   0.000082   0.001828   0.000329   0.000001
    20  H    0.000507   0.617909  -0.025370  -0.042119  -0.000011   0.000000
    21  H    0.000082  -0.025370   0.550880  -0.033691  -0.000020  -0.000020
    22  H    0.001828  -0.042119  -0.033691   0.612490  -0.000011   0.000018
    23  H    0.000329  -0.000011  -0.000020  -0.000011   0.692258  -0.024867
    24  H    0.000001   0.000000  -0.000020   0.000018  -0.024867   0.603402
    25  H    0.000003   0.000000   0.000000   0.000000   0.005513   0.000249
    26  H   -0.000001   0.000000   0.000001   0.000000  -0.000329  -0.000233
    27  H    0.000039  -0.000049  -0.000015   0.000009  -0.001857  -0.000014
    28  H    0.000000   0.000000   0.000000   0.000000  -0.000036   0.000372
    29  H    0.000000   0.000000   0.000000   0.000000   0.001814   0.007145
    30  H    0.000000   0.000000   0.000000   0.000000   0.000022   0.001138
    31  H    0.000000   0.000000   0.000000   0.000000   0.000000  -0.000001
    32  H    0.000000   0.000000   0.000000   0.000000   0.000000   0.000000
    33  H    0.000000   0.000000   0.000000   0.000000   0.000000   0.000000
             25         26         27         28         29         30
     1  C   -0.000020   0.000067  -0.001847   0.000000   0.000001   0.000000
     2  N    0.000070  -0.000061   0.003754   0.000003  -0.000006   0.000001
     3  C   -0.000003   0.000005   0.000055   0.000000   0.000000   0.000000
     4  C   -0.000573   0.000203   0.001064  -0.000161  -0.000559  -0.000036
     5  O   -0.000002   0.000013  -0.000015  -0.000004   0.000023   0.000163
     6  C   -0.002136   0.003751  -0.001698   0.003594  -0.010394  -0.000234
     7  N   -0.058158  -0.040331  -0.034479  -0.037146  -0.041322   0.000391
     8  C    0.370875   0.381701   0.380066  -0.005471   0.003378  -0.000009
     9  C   -0.007081  -0.000978   0.004943   0.375477   0.360007  -0.010474
    10  C   -0.000746   0.000367  -0.000019  -0.042751  -0.048260  -0.041799
    11  C   -0.000005  -0.000007   0.000007   0.003350  -0.007330   0.366835
    12  C    0.000000   0.000002   0.000000  -0.000232   0.000151  -0.040418
    13  C    0.000000  -0.000004   0.000000  -0.000008  -0.000012   0.004830
    14  C    0.000000   0.000100   0.000000   0.000096  -0.000167   0.000206
    15  C    0.000070   0.000090  -0.000094  -0.006245   0.004925   0.004191
    16  F    0.000043   0.011050   0.000022   0.003245   0.000127  -0.000019
    17  H    0.000002  -0.000002   0.000176   0.000000   0.000000   0.000000
    18  H    0.000026  -0.000048   0.001169   0.000001   0.000000   0.000000
    19  H    0.000003  -0.000001   0.000039   0.000000   0.000000   0.000000
    20  H    0.000000   0.000000  -0.000049   0.000000   0.000000   0.000000
    21  H    0.000000   0.000001  -0.000015   0.000000   0.000000   0.000000
    22  H    0.000000   0.000000   0.000009   0.000000   0.000000   0.000000
    23  H    0.005513  -0.000329  -0.001857  -0.000036   0.001814   0.000022
    24  H    0.000249  -0.000233  -0.000014   0.000372   0.007145   0.001138
    25  H    0.687266  -0.049340  -0.041296   0.005016   0.002057   0.000003
    26  H   -0.049340   0.592552  -0.022470  -0.001656  -0.000380  -0.000004
    27  H   -0.041296  -0.022470   0.608545   0.000298  -0.000344   0.000000
    28  H    0.005016  -0.001656   0.000298   0.619770  -0.029042   0.000204
    29  H    0.002057  -0.000380  -0.000344  -0.029042   0.661432   0.006552
    30  H    0.000003  -0.000004   0.000000   0.000204   0.006552   0.630046
    31  H    0.000000   0.000000   0.000000   0.000003  -0.000003  -0.005584
    32  H    0.000000   0.000000   0.000000   0.000000   0.000000  -0.000198
    33  H    0.000000  -0.000003   0.000000   0.000002   0.000003   0.000014
             31         32         33
     1  C    0.000000   0.000000   0.000000
     2  N    0.000000   0.000000   0.000000
     3  C    0.000000   0.000000   0.000000
     4  C   -0.000001   0.000000   0.000000
     5  O   -0.000002   0.000000   0.000000
     6  C    0.000001   0.000000   0.000000
     7  N    0.000002   0.000000   0.000005
     8  C    0.000000   0.000000   0.000000
     9  C   -0.000155   0.000004  -0.000146
    10  C    0.004268   0.000398   0.006044
    11  C   -0.036616   0.004741   0.000442
    12  C    0.364722  -0.039295   0.004767
    13  C   -0.041598   0.369521  -0.039938
    14  C    0.004640  -0.038441   0.354447
    15  C    0.000858   0.003706  -0.033723
    16  F    0.000001  -0.000020  -0.000462
    17  H    0.000000   0.000000   0.000000
    18  H    0.000000   0.000000   0.000000
    19  H    0.000000   0.000000   0.000000
    20  H    0.000000   0.000000   0.000000
    21  H    0.000000   0.000000   0.000000
    22  H    0.000000   0.000000   0.000000
    23  H    0.000000   0.000000   0.000000
    24  H   -0.000001   0.000000   0.000000
    25  H    0.000000   0.000000   0.000000
    26  H    0.000000   0.000000  -0.000003
    27  H    0.000000   0.000000   0.000000
    28  H    0.000003   0.000000   0.000002
    29  H   -0.000003   0.000000   0.000003
    30  H   -0.005584  -0.000198   0.000014
    31  H    0.631338  -0.005684  -0.000174
    32  H   -0.005684   0.622998  -0.006630
    33  H   -0.000174  -0.006630   0.622327
 Mulliken atomic charges:
              1
     1  C   -0.179332
     2  N   -0.447973
     3  C   -0.166672
     4  C    0.571474
     5  O   -0.499602
     6  C   -0.092059
     7  N   -0.405272
     8  C   -0.169153
     9  C   -0.118186
    10  C    0.091809
    11  C   -0.099869
    12  C   -0.083743
    13  C   -0.082142
    14  C   -0.136518
    15  C    0.308745
    16  F   -0.292918
    17  H    0.125379
    18  H    0.118617
    19  H    0.120145
    20  H    0.105061
    21  H    0.144320
    22  H    0.120507
    23  H    0.081555
    24  H    0.116046
    25  H    0.088170
    26  H    0.125947
    27  H    0.104051
    28  H    0.111321
    29  H    0.090206
    30  H    0.084180
    31  H    0.083984
    32  H    0.088899
    33  H    0.093024
 Sum of Mulliken atomic charges =   0.00000
 Mulliken charges with hydrogens summed into heavy atoms:
              1
     1  C    0.184809
     2  N   -0.447973
     3  C    0.203216
     4  C    0.571474
     5  O   -0.499602
     6  C    0.105541
     7  N   -0.405272
     8  C    0.149014
     9  C    0.083341
    10  C    0.091809
    11  C   -0.015689
    12  C    0.000241
    13  C    0.006758
    14  C   -0.043494
    15  C    0.308745
    16  F   -0.292918
 Sum of Mulliken charges with hydrogens summed into heavy atoms =   0.00000
 Electronic spatial extent (au):  <R**2>=           4122.8760
 Charge=              0.0000 electrons
 Dipole moment (field-independent basis, Debye):
    X=             -2.5354    Y=              1.5523    Z=             -0.2593  Tot=              2.9841
 Quadrupole moment (field-independent basis, Debye-Ang):
   XX=            -79.1797   YY=            -96.7072   ZZ=            -89.2816
   XY=             -4.5366   XZ=             -1.7042   YZ=             -3.0344
 Traceless Quadrupole moment (field-independent basis, Debye-Ang):
   XX=              9.2098   YY=             -8.3177   ZZ=             -0.8921
   XY=             -4.5366   XZ=             -1.7042   YZ=             -3.0344
 Octapole moment (field-independent basis, Debye-Ang**2):
  XXX=            -59.6184  YYY=             14.1856  ZZZ=              7.0541  XYY=              7.5567
  XXY=            -20.1554  XXZ=             19.8194  XZZ=             -2.0459  YZZ=             -5.1961
  YYZ=              6.3174  XYZ=              2.4328
 Hexadecapole moment (field-independent basis, Debye-Ang**3):
 XXXX=          -3436.4548 YYYY=          -1118.2782 ZZZZ=           -651.0350 XXXY=            -10.6635
 XXXZ=             34.8068 YYYX=             13.9680 YYYZ=             15.6363 ZZZX=             23.2683
 ZZZY=             18.3022 XXYY=           -753.5077 XXZZ=           -681.5882 YYZZ=           -296.5779
 XXYZ=            -13.1851 YYXZ=            -14.1224 ZZXY=              3.8886
 N-N= 1.127808376653D+03 E-N=-4.008567804847D+03  KE= 7.447925101006D+02
 1\1\GINC-C02\SP\RB3LYP\6-31G(d,p)\C12H17F1N2O1\TUU61186\08-Jun-2026\0\
 \# b3lyp/6-31g(d,p)\\Generated by mdgx\\0,1\C,0,11.9292042,19.1851258,
 15.0597357\N,0,12.4576503,18.1782158,16.0019824\C,0,12.7988243,18.6931
 975,17.3408002\C,0,12.4466477,16.8039344,15.7426791\O,0,12.5227833,15.
 9753509,16.6337546\C,0,12.4906796,16.3613672,14.2706018\N,0,13.8776488
 ,16.1571226,13.820491\C,0,14.6788115,17.2500628,13.2408332\C,0,14.3597
 895,14.8134357,13.4417791\C,0,14.8981425,14.0354722,14.6380778\C,0,14.
 10188,13.0369568,15.2289128\C,0,14.574773,12.3040363,16.3292677\C,0,15
 .8522042,12.5601746,16.8486997\C,0,16.6587994,13.5477113,16.2638452\C,
 0,16.1855374,14.2795969,15.1616101\F,0,16.9831691,15.2165008,14.606131
 9\H,0,10.9860206,18.8275062,14.628065\H,0,12.6535198,19.3630041,14.256
 7631\H,0,11.736234,20.1317358,15.5804216\H,0,13.1781821,19.7201213,17.
 2646972\H,0,13.5755787,18.0655746,17.7956261\H,0,11.9047074,18.6814315
 ,17.9765019\H,0,11.9832353,17.086103,13.6241505\H,0,11.9327247,15.4187
 663,14.2010848\H,0,14.5335492,17.2909112,12.1540838\H,0,15.7454173,17.
 0930029,13.4392352\H,0,14.3912555,18.2128299,13.6775241\H,0,15.1549449
 ,14.8894974,12.6893379\H,0,13.5419168,14.2469171,12.9794416\H,0,13.107
 2446,12.834025,14.841729\H,0,13.9492749,11.5392538,16.7802848\H,0,16.2
 164821,11.9934459,17.7006811\H,0,17.6490675,13.742113,16.6650699\\Vers
 ion=EM64L-G09RevC.01\State=1-A\HF=-752.0695351\RMSD=7.429e-09\Dipole=-
 0.4062167,0.916178,-0.6115486\Quadrupole=-2.7271691,6.0905947,-3.36342
 56,-3.6569795,4.4136868,-0.2792509\PG=C01 [X(C12H17F1N2O1)]\\@


 NOBODY LOSES ALL THE TIME
 I HAD AN UNCLE NAMED
 SOL WHO WAS A BORN FAILURE AND
 NEARLY EVERYBODY SAID HE SHOULD HAVE GONE
 INTO VAUDEVILLE PERHAPS BECAUSE MY UNCLE SOL COULD
 SING MCCANN HE WAS A DIVER ON XMAS EVE LIKE HELL ITSELF WHICH
 MAY OR MAY NOT ACCOUNT FOR THE FACT THAT MY UNCLE
 SOL INDULGED IN THAT POSSIBLY MOST INEXCUSABLE
 OF ALL TO USE A HIGHFALOOTIN PHRASE
 LUXURIES THAT IS OR TO
 WIT FARMING AND BE
 IT NEEDLESSLY
 ADDED
 MY UNCLE SOL'S FARM
 FAILED BECAUSE THE CHICKENS
 ATE THE VEGETABLES SO
 MY UNCLE SOL HAD A
 CHICKEN FARM TILL THE
 SKUNKS ATE THE CHICKENS WHEN 
 MY UNCLE SOL
 HAD A SKUNK FARM BUT
 THE SKUNKS CAUGHT COLD AND
 DIED AND SO
 MY UNCLE SOL IMITATED THE
 SKUNKS IN A SUBTLE MANNER
 OR BY DROWNING HIMSELF IN THE WATERTANK
 BUT SOMEBODY WHO'D GIVEN MY UNCLE SOL A VICTOR
 VICTROLA AND RECORDS WHILE HE LIVED PRESENTED TO
 HIM UPON THE AUSPICIOUS OCCASION OF HIS DECEASE A
 SCRUMPTIOUS NOT TO MENTION SPLENDIFEROUS FUNERAL WITH
 TALL BOYS IN BLACK GLOVES AND FLOWERS AND EVERYTHING AND
 I REMEMBER WE ALL CRIED LIKE THE MISSOURI
 WHEN MY UNCLE SOL'S COFFIN LURCHED BECAUSE
 SOMEBODY PRESSED A BUTTON
 (AND DOWN WENT
 MY UNCLE
 SOL
 AND STARTED A WORM FARM)
           E. E. CUMMINGS
 Job cpu time:  0 days  0 hours  3 minutes 28.4 seconds.
 File lengths (MBytes):  RWF=     47 Int=      0 D2E=      0 Chk=      5 Scr=      1
 Normal termination of Gaussian 09 at Mon Jun  8 05:50:19 2026.
