 Entering Gaussian System, Link 0=/data/opt/apps/g09-C01/g09
 Initial command:
 /data/opt/apps/g09-C01/l1.exe /tmp/g09-tuu61186-120613e956b4d176x/Gau-120742.inp -scrdir=/tmp/g09-tuu61186-120613e956b4d176x/
 Entering Link 1 = /data/opt/apps/g09-C01/l1.exe PID=    120753.
  
 Copyright (c) 1988,1990,1992,1993,1995,1998,2003,2009,2011,
            Gaussian, Inc.  All Rights Reserved.
  
 This is part of the Gaussian(R) 09 program.  It is based on
 the Gaussian(R) 03 system (copyright 2003, Gaussian, Inc.),
 the Gaussian(R) 98 system (copyright 1998, Gaussian, Inc.),
 the Gaussian(R) 94 system (copyright 1995, Gaussian, Inc.),
 the Gaussian 92(TM) system (copyright 1992, Gaussian, Inc.),
 the Gaussian 90(TM) system (copyright 1990, Gaussian, Inc.),
 the Gaussian 88(TM) system (copyright 1988, Gaussian, Inc.),
 the Gaussian 86(TM) system (copyright 1986, Carnegie Mellon
 University), and the Gaussian 82(TM) system (copyright 1983,
 Carnegie Mellon University). Gaussian is a federally registered
 trademark of Gaussian, Inc.
  
 This software contains proprietary and confidential information,
 including trade secrets, belonging to Gaussian, Inc.
  
 This software is provided under written license and may be
 used, copied, transmitted, or stored only in accord with that
 written license.
  
 The following legend is applicable only to US Government
 contracts under FAR:
  
                    RESTRICTED RIGHTS LEGEND
  
 Use, reproduction and disclosure by the US Government is
 subject to restrictions as set forth in subparagraphs (a)
 and (c) of the Commercial Computer Software - Restricted
 Rights clause in FAR 52.227-19.
  
 Gaussian, Inc.
 340 Quinnipiac St., Bldg. 40, Wallingford CT 06492
  
  
 ---------------------------------------------------------------
 Warning -- This program may not be used in any manner that
 competes with the business of Gaussian, Inc. or will provide
 assistance to any competitor of Gaussian, Inc.  The licensee
 of this program is prohibited from giving any competitor of
 Gaussian, Inc. access to this program.  By using this program,
 the user acknowledges that Gaussian, Inc. is engaged in the
 business of creating and licensing software in the field of
 computational chemistry and represents and warrants to the
 licensee that it is not a competitor of Gaussian, Inc. and that
 it will not use this program in any manner prohibited above.
 ---------------------------------------------------------------
  

 Cite this work as:
 Gaussian 09, Revision C.01,
 M. J. Frisch, G. W. Trucks, H. B. Schlegel, G. E. Scuseria, 
 M. A. Robb, J. R. Cheeseman, G. Scalmani, V. Barone, B. Mennucci, 
 G. A. Petersson, H. Nakatsuji, M. Caricato, X. Li, H. P. Hratchian, 
 A. F. Izmaylov, J. Bloino, G. Zheng, J. L. Sonnenberg, M. Hada, 
 M. Ehara, K. Toyota, R. Fukuda, J. Hasegawa, M. Ishida, T. Nakajima, 
 Y. Honda, O. Kitao, H. Nakai, T. Vreven, J. A. Montgomery, Jr., 
 J. E. Peralta, F. Ogliaro, M. Bearpark, J. J. Heyd, E. Brothers, 
 K. N. Kudin, V. N. Staroverov, T. Keith, R. Kobayashi, J. Normand, 
 K. Raghavachari, A. Rendell, J. C. Burant, S. S. Iyengar, J. Tomasi, 
 M. Cossi, N. Rega, J. M. Millam, M. Klene, J. E. Knox, J. B. Cross, 
 V. Bakken, C. Adamo, J. Jaramillo, R. Gomperts, R. E. Stratmann, 
 O. Yazyev, A. J. Austin, R. Cammi, C. Pomelli, J. W. Ochterski, 
 R. L. Martin, K. Morokuma, V. G. Zakrzewski, G. A. Voth, 
 P. Salvador, J. J. Dannenberg, S. Dapprich, A. D. Daniels, 
 O. Farkas, J. B. Foresman, J. V. Ortiz, J. Cioslowski, 
 and D. J. Fox, Gaussian, Inc., Wallingford CT, 2010.
 
 ******************************************
 Gaussian 09:  EM64L-G09RevC.01 23-Sep-2011
                 8-Jun-2026 
 ******************************************
 %nprocshared=8
 Will use up to    8 processors via shared memory.
 %mem=14GB
 ------------------
 # b3lyp/6-31g(d,p)
 ------------------
 1/38=1/1;
 2/12=2,17=6,18=5,40=1/2;
 3/5=1,6=6,7=101,11=2,16=1,25=1,30=1,74=-5/1,2,3;
 4//1;
 5/5=2,38=5/2;
 6/7=2,8=2,9=2,10=2,28=1/1;
 99/5=1,9=1/99;
 -----------------
 Generated by mdgx
 -----------------
 Charge =  0 Multiplicity = 1
 Symbolic Z-Matrix:
 C                     12.98431   19.5645   16.45266 
 N                     12.49653   18.29035   15.89201 
 C                     11.9167   17.35427   16.87746 
 C                     12.41777   18.09639   14.50794 
 O                     12.57496   19.00859   13.71422 
 C                     12.25259   16.65267   14.00304 
 N                     13.57445   16.0218   13.74065 
 C                     14.1398   16.21922   12.39215 
 C                     13.55595   14.60078   14.18396 
 C                     14.74308   14.20225   15.06868 
 C                     15.24875   12.8942   14.93591 
 C                     16.33141   12.45596   15.71446 
 C                     16.92616   13.32156   16.64205 
 C                     16.43534   14.62613   16.79058 
 C                     15.35103   15.06681   16.01244 
 F                     14.91208   16.32995   16.18845 
 H                     12.14887   20.27038   16.53896 
 H                     13.75403   19.99196   15.79778 
 H                     13.42383   19.3972   17.44413 
 H                     11.98104   17.7719   17.8902 
 H                     12.4569   16.40048   16.85256 
 H                     10.86098   17.17795   16.63617 
 H                     11.6574   16.67932   13.08126 
 H                     11.66192   16.09259   14.735 
 H                     14.72291   17.14804   12.36536 
 H                     13.34971   16.24795   11.63123 
 H                     14.83335   15.40537   12.14455 
 H                     13.51896   13.94171   13.30719 
 H                     12.65571   14.37455   14.76705 
 H                     14.79961   12.20789   14.22327 
 H                     16.7084   11.44409   15.59788 
 H                     17.76404   12.98219   17.2442 
 H                     16.89734   15.2955   17.51047 
 
                          Input orientation:                          
 ---------------------------------------------------------------------
 Center     Atomic      Atomic             Coordinates (Angstroms)
 Number     Number       Type             X           Y           Z
 ---------------------------------------------------------------------
      1          6           0       12.984314   19.564495   16.452659
      2          7           0       12.496531   18.290347   15.892007
      3          6           0       11.916703   17.354266   16.877457
      4          6           0       12.417767   18.096392   14.507939
      5          8           0       12.574959   19.008588   13.714216
      6          6           0       12.252586   16.652669   14.003042
      7          7           0       13.574449   16.021799   13.740648
      8          6           0       14.139797   16.219219   12.392147
      9          6           0       13.555954   14.600785   14.183965
     10          6           0       14.743082   14.202250   15.068684
     11          6           0       15.248748   12.894202   14.935905
     12          6           0       16.331415   12.455959   15.714461
     13          6           0       16.926160   13.321560   16.642055
     14          6           0       16.435336   14.626129   16.790580
     15          6           0       15.351035   15.066807   16.012439
     16          9           0       14.912084   16.329950   16.188445
     17          1           0       12.148869   20.270378   16.538960
     18          1           0       13.754026   19.991961   15.797777
     19          1           0       13.423826   19.397198   17.444131
     20          1           0       11.981039   17.771901   17.890201
     21          1           0       12.456895   16.400477   16.852561
     22          1           0       10.860976   17.177953   16.636166
     23          1           0       11.657397   16.679319   13.081259
     24          1           0       11.661919   16.092595   14.734998
     25          1           0       14.722908   17.148041   12.365358
     26          1           0       13.349713   16.247945   11.631227
     27          1           0       14.833349   15.405374   12.144554
     28          1           0       13.518959   13.941708   13.307193
     29          1           0       12.655711   14.374550   14.767051
     30          1           0       14.799608   12.207894   14.223267
     31          1           0       16.708403   11.444093   15.597879
     32          1           0       17.764038   12.982193   17.244200
     33          1           0       16.897343   15.295500   17.510470
 ---------------------------------------------------------------------
                    Distance matrix (angstroms):
                    1          2          3          4          5
     1  C    0.000000
     2  N    1.475031   0.000000
     3  C    2.491056   1.477687   0.000000
     4  C    2.501647   1.399809   2.533067   0.000000
     5  O    2.824124   2.294514   3.629900   1.219347   0.000000
     6  C    3.874891   2.511909   2.977804   1.538357   2.395349
     7  N    4.500440   3.307048   3.789876   2.496114   3.149696
     8  C    5.386444   4.386220   5.133078   3.311457   3.460804
     9  C    5.487455   4.201507   4.186132   3.690488   4.540015
    10  C    5.810536   4.736813   4.603834   4.570106   5.443917
    11  C    7.205624   6.132472   5.896127   5.938046   6.784348
    12  C    7.891724   6.984121   6.695943   6.970425   7.813378
    13  C    7.385679   6.698733   6.435277   6.905004   7.736115
    14  C    6.034170   5.454184   5.279046   5.778758   6.600945
    15  C    5.101407   4.307425   4.216083   4.477272   5.340980
    16  F    3.774704   3.125049   3.239794   3.487985   4.331174
    17  H    1.097127   2.111857   2.944858   2.987234   3.122955
    18  H    1.097294   2.117938   3.391003   2.653761   2.588136
    19  H    1.097349   2.119925   2.601175   3.365334   3.844979
    20  H    2.507286   2.127745   1.097364   3.425744   4.395565
    21  H    3.232507   2.120340   1.096422   2.893943   4.082326
    22  H    3.199660   2.113346   1.097209   2.792217   3.850553
    23  H    4.631553   3.346619   3.864442   2.149808   2.582256
    24  H    4.093065   2.620184   2.499372   2.153617   3.221592
    25  H    5.056480   4.324220   5.317552   3.286899   3.145590
    26  H    5.863380   4.801413   5.549810   3.544115   3.544041
    27  H    6.267136   5.275149   5.891127   4.319978   4.532914
    28  H    6.464947   5.161132   5.192260   4.462714   5.170113
    29  H    5.466698   4.077295   3.725407   3.738431   4.752819
    30  H    7.898422   6.714544   6.468463   6.358350   7.173397
    31  H    8.974431   8.043480   7.715429   7.990658   8.823555
    32  H    8.173066   7.599445   7.310325   7.888268   8.700849
    33  H    5.886856   5.563783   5.426416   6.076742   6.847012
                    6          7          8          9         10
     6  C    0.000000
     7  N    1.488008   0.000000
     8  C    2.518816   1.475483   0.000000
     9  C    2.437566   1.488675   2.484112   0.000000
    10  C    3.652769   2.537744   3.405285   1.533242   0.000000
    11  C    4.896253   3.743499   4.330845   2.518609   1.408658
    12  C    6.097391   4.920571   5.477507   3.826993   2.447317
    13  C    6.316880   5.190706   5.849954   4.363131   2.831420
    14  C    5.419652   4.408476   5.210917   3.884060   2.451188
    15  C    4.019082   3.037977   3.987690   2.604383   1.416948
    16  F    3.457320   2.806410   3.875638   2.974398   2.410298
    17  H    4.419214   5.283299   6.129580   6.298426   6.761201
    18  H    4.077532   4.475066   5.097129   5.631021   5.918663
    19  H    4.554705   5.013162   6.011216   5.801010   5.862651
    20  H    4.054186   4.777092   6.107345   5.125673   5.322805
    21  H    2.867943   3.328111   4.770776   3.401210   3.638829
    22  H    3.024210   4.133238   5.448077   4.462958   5.136396
    23  H    1.097563   2.131247   2.617037   3.023373   4.428000
    24  H    1.094682   2.156737   3.412457   2.473156   3.630195
    25  H    3.004979   2.116318   1.097017   3.340304   3.998258
    26  H    2.644427   2.133378   1.097295   3.045019   4.235853
    27  H    3.416147   2.124224   1.097570   2.537381   3.163257
    28  H    3.072005   2.125498   2.531759   1.097488   2.160835
    29  H    2.436400   2.147327   3.353429   1.096179   2.116078
    30  H    5.127557   4.034825   4.458596   2.697062   2.166882
    31  H    7.037547   5.850331   6.298911   4.679935   3.427822
    32  H    7.372490   6.250340   6.867014   5.449115   3.917600
    33  H    5.976431   5.077470   5.886812   4.765831   3.434874
                   11         12         13         14         15
    11  C    0.000000
    12  C    1.403700   0.000000
    13  C    2.430492   1.401220   0.000000
    14  C    2.801317   2.424555   1.401737   0.000000
    15  C    2.426850   2.804722   2.433787   1.405493   0.000000
    16  F    3.672405   4.152946   3.648653   2.363444   1.348772
    17  H    8.160086   8.901608   8.433220   7.091873   6.132556
    18  H    7.304464   7.964998   7.434345   6.080069   5.182052
    19  H    7.204894   7.721828   7.058544   5.679738   4.951380
    20  H    6.572498   7.205474   6.768872   5.562896   4.711729
    21  H    4.874626   5.645033   5.431240   4.356621   3.295531
    22  H    6.363486   7.285086   7.187368   6.132630   5.000660
    23  H    5.537565   6.827662   7.191222   6.387750   4.983470
    24  H    4.809929   5.999054   6.247218   5.400134   4.036542
    25  H    4.997937   5.984933   6.147065   5.373550   4.245855
    26  H    5.076891   6.320008   6.816384   6.226578   4.959374
    27  H    3.777590   4.866979   5.380488   4.975856   3.917035
    28  H    2.596564   3.989022   4.807796   4.594309   3.455533
    29  H    2.990615   4.253160   4.781335   4.294593   3.048767
    30  H    1.086554   2.152122   3.407787   3.887745   3.417396
    31  H    2.161393   1.086087   2.159307   3.409172   3.890805
    32  H    3.415063   2.160888   1.086181   2.161885   3.418397
    33  H    3.887477   3.407186   2.156713   1.086163   2.165056
                   16         17         18         19         20
    16  F    0.000000
    17  H    4.825473   0.000000
    18  H    3.860576   1.789803   0.000000
    19  H    3.633135   1.790891   1.781364   0.000000
    20  H    3.683235   2.845419   3.528511   2.218605   0.000000
    21  H    2.544401   3.894786   3.961549   3.203943   1.784360
    22  H    4.163057   3.351300   4.122047   3.485119   1.783232
    23  H    4.513275   5.009286   4.769582   5.435236   4.942105
    24  H    3.568251   4.576601   4.550985   4.622134   3.588484
    25  H    3.914212   5.813228   4.561591   5.704407   6.199270
    26  H    4.818294   6.458160   5.616160   6.611591   6.585625
    27  H    4.148987   7.084172   5.962194   6.782841   6.837294
    28  H    3.993258   7.236955   6.547047   6.847312   6.167620
    29  H    3.306837   6.177163   5.815840   5.743148   4.663823
    30  H    4.567923   8.797301   8.010245   7.997052   7.235255
    31  H    5.239000   9.978892   9.046234   8.800510   8.224589
    32  H    4.522802   9.227412   8.204218   7.747884   7.536690
    33  H    2.599825   6.945592   5.905125   5.375281   5.517862
                   21         22         23         24         25
    21  H    0.000000
    22  H    1.788366   0.000000
    23  H    3.865186   3.676994   0.000000
    24  H    2.282729   2.331085   1.754741   0.000000
    25  H    5.082190   5.758057   3.182699   4.012333   0.000000
    26  H    5.299312   5.666405   2.269936   3.536407   1.798551
    27  H    5.366851   6.252709   3.547820   4.152185   1.760068
    28  H    4.443327   5.349787   3.318279   3.180178   3.552058
    29  H    2.914320   3.817557   3.024977   1.985026   4.211138
    30  H    5.475330   6.785013   5.583128   5.019747   5.278519
    31  H    6.649458   8.255156   7.697638   6.915210   6.850285
    32  H    6.324857   8.101011   8.263770   7.294282   7.099709
    33  H    4.622921   6.383241   6.999279   5.978985   5.884918
                   26         27         28         29         30
    26  H    0.000000
    27  H    1.781742   0.000000
    28  H    2.855912   2.285097   0.000000
    29  H    3.718150   3.561207   1.750352   0.000000
    30  H    5.014267   3.813930   2.342085   3.096190   0.000000
    31  H    7.077579   5.579698   4.653802   5.069730   2.473146
    32  H    7.852189   6.361379   5.868679   5.845505   4.302723
    33  H    6.932411   5.750235   5.560015   5.134777   4.973883
                   31         32         33
    31  H    0.000000
    32  H    2.488070   0.000000
    33  H    4.304305   2.484643   0.000000
 Stoichiometry    C12H17FN2O
 Framework group  C1[X(C12H17FN2O)]
 Deg. of freedom    93
 Full point group                 C1      NOp   1
 Largest Abelian subgroup         C1      NOp   1
 Largest concise Abelian subgroup C1      NOp   1
                         Standard orientation:                         
 ---------------------------------------------------------------------
 Center     Atomic      Atomic             Coordinates (Angstroms)
 Number     Number       Type             X           Y           Z
 ---------------------------------------------------------------------
      1          6           0        3.346615   -1.929949   -0.596036
      2          7           0        2.651215   -0.960939    0.271808
      3          6           0        2.117764   -1.519460    1.531588
      4          6           0        2.686917    0.410267   -0.007455
      5          8           0        3.422742    0.880947   -0.858236
      6          6           0        1.662854    1.306391    0.710040
      7          7           0        0.420643    1.452741   -0.095977
      8          6           0        0.401203    2.554060   -1.077693
      9          6           0       -0.770531    1.420069    0.796318
     10          6           0       -1.869515    0.451604    0.343394
     11          6           0       -3.207772    0.824061    0.577184
     12          6           0       -4.267765   -0.012482    0.193797
     13          6           0       -4.004827   -1.239286   -0.430087
     14          6           0       -2.679589   -1.628666   -0.668822
     15          6           0       -1.616725   -0.792834   -0.285267
     16          9           0       -0.357818   -1.207571   -0.534928
     17          1           0        4.389746   -2.029902   -0.271115
     18          1           0        3.322669   -1.585074   -1.637450
     19          1           0        2.852653   -2.908308   -0.541369
     20          1           0        2.311771   -2.598074    1.587811
     21          1           0        1.035946   -1.350593    1.588971
     22          1           0        2.605597   -1.029513    2.383549
     23          1           0        2.124355    2.288619    0.874016
     24          1           0        1.468186    0.887953    1.702685
     25          1           0        0.824292    2.211255   -2.030021
     26          1           0        0.958909    3.424057   -0.708743
     27          1           0       -0.631024    2.863779   -1.285638
     28          1           0       -1.190893    2.429808    0.886892
     29          1           0       -0.500603    1.115492    1.814149
     30          1           0       -3.431540    1.770694    1.061348
     31          1           0       -5.293388    0.291592    0.381471
     32          1           0       -4.825288   -1.886274   -0.726804
     33          1           0       -2.477732   -2.580212   -1.152107
 ---------------------------------------------------------------------
 Rotational constants (GHZ):      0.9211802      0.3243369      0.2718447
 Standard basis: 6-31G(d,p) (6D, 7F)
 There are   325 symmetry adapted basis functions of A   symmetry.
 Integral buffers will be    131072 words long.
 Raffenetti 2 integral format.
 Two-electron integral symmetry is turned on.
   325 basis functions,   567 primitive gaussians,   325 cartesian basis functions
    60 alpha electrons       60 beta electrons
       nuclear repulsion energy      1133.5661889479 Hartrees.
 NAtoms=   33 NActive=   33 NUniq=   33 SFac= 1.00D+00 NAtFMM=   60 NAOKFM=F Big=F
 One-electron integrals computed using PRISM.
 NBasis=   325 RedAO= T  NBF=   325
 NBsUse=   325 1.00D-06 NBFU=   325
 Harris functional with IExCor=  402 diagonalized for initial guess.
 ExpMin= 1.61D-01 ExpMax= 7.00D+03 ExpMxC= 1.05D+03 IAcc=1 IRadAn=         1 AccDes= 0.00D+00
 HarFok:  IExCor=  402 AccDes= 0.00D+00 IRadAn=         1 IDoV= 1
 ScaDFX=  1.000000  1.000000  1.000000  1.000000
 FoFCou: FMM=F IPFlag=           0 FMFlag=      100000 FMFlg1=           0
         NFxFlg=           0 DoJE=T BraDBF=F KetDBF=T FulRan=T
         Omega=  0.000000  0.000000  1.000000  0.000000  0.000000 ICntrl=     500 IOpCl=  0
         NMat0=    1 NMatS0=    1 NMatT0=    0 NMatD0=    1 NMtDS0=    0 NMtDT0=    0
         I1Cent=           4 NGrid=           0.
 Petite list used in FoFCou.
 Initial guess orbital symmetries:
       Occupied  (A) (A) (A) (A) (A) (A) (A) (A) (A) (A) (A) (A)
                 (A) (A) (A) (A) (A) (A) (A) (A) (A) (A) (A) (A)
                 (A) (A) (A) (A) (A) (A) (A) (A) (A) (A) (A) (A)
                 (A) (A) (A) (A) (A) (A) (A) (A) (A) (A) (A) (A)
                 (A) (A) (A) (A) (A) (A) (A) (A) (A) (A) (A) (A)
       Virtual   (A) (A) (A) (A) (A) (A) (A) (A) (A) (A) (A) (A)
                 (A) (A) (A) (A) (A) (A) (A) (A) (A) (A) (A) (A)
                 (A) (A) (A) (A) (A) (A) (A) (A) (A) (A) (A) (A)
                 (A) (A) (A) (A) (A) (A) (A) (A) (A) (A) (A) (A)
                 (A) (A) (A) (A) (A) (A) (A) (A) (A) (A) (A) (A)
                 (A) (A) (A) (A) (A) (A) (A) (A) (A) (A) (A) (A)
                 (A) (A) (A) (A) (A) (A) (A) (A) (A) (A) (A) (A)
                 (A) (A) (A) (A) (A) (A) (A) (A) (A) (A) (A) (A)
                 (A) (A) (A) (A) (A) (A) (A) (A) (A) (A) (A) (A)
                 (A) (A) (A) (A) (A) (A) (A) (A) (A) (A) (A) (A)
                 (A) (A) (A) (A) (A) (A) (A) (A) (A) (A) (A) (A)
                 (A) (A) (A) (A) (A) (A) (A) (A) (A) (A) (A) (A)
                 (A) (A) (A) (A) (A) (A) (A) (A) (A) (A) (A) (A)
                 (A) (A) (A) (A) (A) (A) (A) (A) (A) (A) (A) (A)
                 (A) (A) (A) (A) (A) (A) (A) (A) (A) (A) (A) (A)
                 (A) (A) (A) (A) (A) (A) (A) (A) (A) (A) (A) (A)
                 (A) (A) (A) (A) (A) (A) (A) (A) (A) (A) (A) (A)
                 (A) (A) (A) (A) (A) (A) (A) (A) (A) (A) (A) (A)
                 (A) (A) (A) (A) (A) (A) (A) (A) (A) (A) (A) (A)
                 (A) (A) (A) (A) (A) (A) (A) (A) (A) (A) (A) (A)
                 (A) (A) (A) (A) (A) (A) (A) (A) (A) (A) (A) (A)
                 (A) (A) (A) (A) (A) (A) (A) (A) (A) (A) (A) (A)
                 (A)
 The electronic state of the initial guess is 1-A.
 Requested convergence on RMS density matrix=1.00D-08 within 128 cycles.
 Requested convergence on MAX density matrix=1.00D-06.
 Requested convergence on             energy=1.00D-06.
 No special actions if energy rises.
 Keep R1 ints in memory in canonical form, NReq=1421145457.
 Integral accuracy reduced to 1.0D-05 until final iterations.
 Initial convergence to 1.0D-05 achieved.  Increase integral accuracy.
 SCF Done:  E(RB3LYP) =  -752.068467710     A.U. after   15 cycles
             Convg  =    0.8036D-08             -V/T =  2.0098

 **********************************************************************

            Population analysis using the SCF density.

 **********************************************************************

 Orbital symmetries:
       Occupied  (A) (A) (A) (A) (A) (A) (A) (A) (A) (A) (A) (A)
                 (A) (A) (A) (A) (A) (A) (A) (A) (A) (A) (A) (A)
                 (A) (A) (A) (A) (A) (A) (A) (A) (A) (A) (A) (A)
                 (A) (A) (A) (A) (A) (A) (A) (A) (A) (A) (A) (A)
                 (A) (A) (A) (A) (A) (A) (A) (A) (A) (A) (A) (A)
       Virtual   (A) (A) (A) (A) (A) (A) (A) (A) (A) (A) (A) (A)
                 (A) (A) (A) (A) (A) (A) (A) (A) (A) (A) (A) (A)
                 (A) (A) (A) (A) (A) (A) (A) (A) (A) (A) (A) (A)
                 (A) (A) (A) (A) (A) (A) (A) (A) (A) (A) (A) (A)
                 (A) (A) (A) (A) (A) (A) (A) (A) (A) (A) (A) (A)
                 (A) (A) (A) (A) (A) (A) (A) (A) (A) (A) (A) (A)
                 (A) (A) (A) (A) (A) (A) (A) (A) (A) (A) (A) (A)
                 (A) (A) (A) (A) (A) (A) (A) (A) (A) (A) (A) (A)
                 (A) (A) (A) (A) (A) (A) (A) (A) (A) (A) (A) (A)
                 (A) (A) (A) (A) (A) (A) (A) (A) (A) (A) (A) (A)
                 (A) (A) (A) (A) (A) (A) (A) (A) (A) (A) (A) (A)
                 (A) (A) (A) (A) (A) (A) (A) (A) (A) (A) (A) (A)
                 (A) (A) (A) (A) (A) (A) (A) (A) (A) (A) (A) (A)
                 (A) (A) (A) (A) (A) (A) (A) (A) (A) (A) (A) (A)
                 (A) (A) (A) (A) (A) (A) (A) (A) (A) (A) (A) (A)
                 (A) (A) (A) (A) (A) (A) (A) (A) (A) (A) (A) (A)
                 (A) (A) (A) (A) (A) (A) (A) (A) (A) (A) (A) (A)
                 (A) (A) (A) (A) (A) (A) (A) (A) (A) (A) (A) (A)
                 (A) (A) (A) (A) (A) (A) (A) (A) (A) (A) (A) (A)
                 (A) (A) (A) (A) (A) (A) (A) (A) (A) (A) (A) (A)
                 (A) (A) (A) (A) (A) (A) (A) (A) (A) (A) (A) (A)
                 (A) (A) (A) (A) (A) (A) (A) (A) (A) (A) (A) (A)
                 (A)
 The electronic state is 1-A.
 Alpha  occ. eigenvalues --  -24.70251 -19.09880 -14.34994 -14.32885 -10.27350
 Alpha  occ. eigenvalues --  -10.26991 -10.22231 -10.21996 -10.21237 -10.20858
 Alpha  occ. eigenvalues --  -10.20437 -10.20110 -10.19787 -10.19771 -10.19677
 Alpha  occ. eigenvalues --  -10.19301  -1.21256  -1.01702  -0.91142  -0.90640
 Alpha  occ. eigenvalues --   -0.85343  -0.76984  -0.74285  -0.73000  -0.70809
 Alpha  occ. eigenvalues --   -0.69484  -0.66945  -0.61781  -0.61308  -0.58559
 Alpha  occ. eigenvalues --   -0.53193  -0.52966  -0.49374  -0.49249  -0.48085
 Alpha  occ. eigenvalues --   -0.47175  -0.46227  -0.45444  -0.45284  -0.44313
 Alpha  occ. eigenvalues --   -0.44012  -0.42646  -0.40769  -0.40433  -0.40324
 Alpha  occ. eigenvalues --   -0.40031  -0.39208  -0.37822  -0.37439  -0.37175
 Alpha  occ. eigenvalues --   -0.36349  -0.35390  -0.34695  -0.34236  -0.33730
 Alpha  occ. eigenvalues --   -0.25140  -0.23954  -0.23822  -0.22174  -0.20320
 Alpha virt. eigenvalues --   -0.00976  -0.00071   0.02491   0.07737   0.08783
 Alpha virt. eigenvalues --    0.10515   0.11439   0.12625   0.13120   0.14078
 Alpha virt. eigenvalues --    0.14463   0.14662   0.15126   0.15509   0.15871
 Alpha virt. eigenvalues --    0.16186   0.17178   0.17520   0.18166   0.18778
 Alpha virt. eigenvalues --    0.18863   0.19383   0.21059   0.21743   0.22352
 Alpha virt. eigenvalues --    0.24949   0.26697   0.27671   0.29796   0.31425
 Alpha virt. eigenvalues --    0.32309   0.33705   0.34092   0.36222   0.39577
 Alpha virt. eigenvalues --    0.47061   0.48822   0.49297   0.50369   0.51137
 Alpha virt. eigenvalues --    0.51595   0.52710   0.53021   0.53365   0.54382
 Alpha virt. eigenvalues --    0.55608   0.57090   0.57995   0.58931   0.59441
 Alpha virt. eigenvalues --    0.60121   0.60269   0.60487   0.61000   0.61705
 Alpha virt. eigenvalues --    0.62954   0.64491   0.65739   0.65961   0.67640
 Alpha virt. eigenvalues --    0.69303   0.70137   0.72758   0.73559   0.74922
 Alpha virt. eigenvalues --    0.76492   0.78122   0.79747   0.80249   0.80928
 Alpha virt. eigenvalues --    0.81425   0.82582   0.82665   0.83092   0.84374
 Alpha virt. eigenvalues --    0.85156   0.85760   0.85929   0.87612   0.88439
 Alpha virt. eigenvalues --    0.89001   0.89310   0.90438   0.90706   0.91948
 Alpha virt. eigenvalues --    0.92040   0.93349   0.95161   0.96233   0.96483
 Alpha virt. eigenvalues --    1.00067   1.00903   1.03085   1.04404   1.05823
 Alpha virt. eigenvalues --    1.06938   1.08677   1.09700   1.10747   1.14130
 Alpha virt. eigenvalues --    1.15044   1.18697   1.21203   1.22470   1.22722
 Alpha virt. eigenvalues --    1.24090   1.26937   1.27641   1.27911   1.30835
 Alpha virt. eigenvalues --    1.33693   1.34622   1.36754   1.39581   1.40435
 Alpha virt. eigenvalues --    1.40665   1.41209   1.42405   1.45659   1.46387
 Alpha virt. eigenvalues --    1.49324   1.51832   1.54065   1.54599   1.58990
 Alpha virt. eigenvalues --    1.60117   1.62864   1.69638   1.70914   1.71546
 Alpha virt. eigenvalues --    1.72690   1.74712   1.77094   1.77929   1.79854
 Alpha virt. eigenvalues --    1.81855   1.83244   1.83732   1.84754   1.84986
 Alpha virt. eigenvalues --    1.86011   1.86648   1.87689   1.89707   1.90438
 Alpha virt. eigenvalues --    1.91285   1.91495   1.93067   1.93763   1.94385
 Alpha virt. eigenvalues --    1.95342   1.97138   1.98627   1.98783   1.99328
 Alpha virt. eigenvalues --    2.01734   2.01785   2.02997   2.04012   2.04662
 Alpha virt. eigenvalues --    2.05035   2.06036   2.07382   2.08252   2.08414
 Alpha virt. eigenvalues --    2.09999   2.10754   2.13030   2.14222   2.15762
 Alpha virt. eigenvalues --    2.17901   2.21155   2.24518   2.24997   2.26987
 Alpha virt. eigenvalues --    2.27806   2.28447   2.29578   2.31678   2.32505
 Alpha virt. eigenvalues --    2.35005   2.36597   2.36918   2.37871   2.38593
 Alpha virt. eigenvalues --    2.38959   2.39916   2.42742   2.43409   2.45102
 Alpha virt. eigenvalues --    2.47263   2.47966   2.50374   2.51460   2.53379
 Alpha virt. eigenvalues --    2.53884   2.55265   2.56252   2.56854   2.58352
 Alpha virt. eigenvalues --    2.59751   2.61581   2.63151   2.63901   2.64597
 Alpha virt. eigenvalues --    2.65724   2.67570   2.68367   2.70733   2.71378
 Alpha virt. eigenvalues --    2.73167   2.73899   2.77537   2.78844   2.80783
 Alpha virt. eigenvalues --    2.81970   2.83518   2.85026   2.86969   2.87742
 Alpha virt. eigenvalues --    2.89252   2.91696   2.92985   2.97407   2.99997
 Alpha virt. eigenvalues --    3.03207   3.05197   3.09632   3.10808   3.13009
 Alpha virt. eigenvalues --    3.17304   3.18192   3.19449   3.23386   3.23475
 Alpha virt. eigenvalues --    3.27920   3.33620   3.34770   3.36750   3.41713
 Alpha virt. eigenvalues --    3.42102   3.43443   3.44037   3.44350   3.45779
 Alpha virt. eigenvalues --    3.45973   3.47183   3.51882   3.82867   3.99600
 Alpha virt. eigenvalues --    4.05471   4.11145   4.13935   4.15656   4.17139
 Alpha virt. eigenvalues --    4.35066   4.38608   4.41396   4.47828   4.51927
 Alpha virt. eigenvalues --    4.52166   4.56185   4.70151   4.80154   5.52652
          Condensed to atoms (all electrons):
              1          2          3          4          5          6
     1  C    4.782900   0.282938  -0.049900  -0.021190   0.005350   0.006023
     2  N    0.282938   7.056932   0.275555   0.258211  -0.098493  -0.105822
     3  C   -0.049900   0.275555   4.824844  -0.016651   0.002636  -0.001056
     4  C   -0.021190   0.258211  -0.016651   4.407997   0.576808   0.340793
     5  O    0.005350  -0.098493   0.002636   0.576808   8.081793  -0.078155
     6  C    0.006023  -0.105822  -0.001056   0.340793  -0.078155   5.041309
     7  N   -0.000206   0.002029  -0.000813  -0.050085  -0.003118   0.304739
     8  C   -0.000004   0.000071  -0.000009  -0.000208   0.002630  -0.043267
     9  C    0.000010  -0.000289  -0.000151   0.004697   0.000049  -0.038267
    10  C    0.000001   0.000007   0.000083   0.000020  -0.000001   0.002940
    11  C    0.000000   0.000000  -0.000002  -0.000002   0.000000  -0.000136
    12  C    0.000000   0.000000   0.000000   0.000000   0.000000   0.000002
    13  C    0.000000   0.000000   0.000000   0.000000   0.000000   0.000000
    14  C    0.000000   0.000003  -0.000005   0.000001   0.000000   0.000010
    15  C   -0.000010   0.000255  -0.000048  -0.000088   0.000000   0.000834
    16  F    0.000090   0.000584  -0.002261   0.001047   0.000000  -0.000375
    17  H    0.389120  -0.048444   0.001685  -0.003283   0.001087  -0.000168
    18  H    0.388635  -0.035068   0.004431  -0.002755   0.009001   0.000306
    19  H    0.380946  -0.036303  -0.007193   0.004333   0.000487  -0.000109
    20  H   -0.005904  -0.026581   0.387606   0.001528  -0.000082   0.000174
    21  H    0.002864  -0.044665   0.377703  -0.002704  -0.000065  -0.002117
    22  H    0.002956  -0.046051   0.382763  -0.003823   0.000222  -0.001131
    23  H   -0.000164   0.004927  -0.000361  -0.034913   0.001132   0.340451
    24  H   -0.000161   0.000221   0.003518  -0.030681   0.003849   0.348154
    25  H    0.000003  -0.000022   0.000002   0.001056   0.001789   0.002038
    26  H   -0.000001   0.000012  -0.000001  -0.000823  -0.000051  -0.012687
    27  H    0.000000   0.000003  -0.000001   0.000043   0.000048   0.004024
    28  H    0.000000   0.000001   0.000002  -0.000234   0.000001   0.000918
    29  H    0.000000   0.000060  -0.000319  -0.000126  -0.000006  -0.013792
    30  H    0.000000   0.000000   0.000000   0.000000   0.000000  -0.000007
    31  H    0.000000   0.000000   0.000000   0.000000   0.000000   0.000000
    32  H    0.000000   0.000000   0.000000   0.000000   0.000000   0.000000
    33  H    0.000000   0.000000   0.000001   0.000000   0.000000   0.000000
              7          8          9         10         11         12
     1  C   -0.000206  -0.000004   0.000010   0.000001   0.000000   0.000000
     2  N    0.002029   0.000071  -0.000289   0.000007   0.000000   0.000000
     3  C   -0.000813  -0.000009  -0.000151   0.000083  -0.000002   0.000000
     4  C   -0.050085  -0.000208   0.004697   0.000020  -0.000002   0.000000
     5  O   -0.003118   0.002630   0.000049  -0.000001   0.000000   0.000000
     6  C    0.304739  -0.043267  -0.038267   0.002940  -0.000136   0.000002
     7  N    6.874514   0.312909   0.287748  -0.054217   0.002650  -0.000084
     8  C    0.312909   4.804710  -0.042148   0.000674  -0.000150  -0.000003
     9  C    0.287748  -0.042148   4.938931   0.326371  -0.050534   0.005845
    10  C   -0.054217   0.000674   0.326371   5.064515   0.485849  -0.023465
    11  C    0.002650  -0.000150  -0.050534   0.485849   4.922876   0.515873
    12  C   -0.000084  -0.000003   0.005845  -0.023465   0.515873   4.829301
    13  C   -0.000016  -0.000001   0.000100  -0.029261  -0.036525   0.542558
    14  C    0.000018  -0.000002   0.005823  -0.069768  -0.041592  -0.030587
    15  C   -0.002958   0.000241  -0.049972   0.434454  -0.012834  -0.042932
    16  F   -0.000767   0.000039  -0.002279  -0.051522   0.002525  -0.000070
    17  H   -0.000003   0.000000   0.000000   0.000000   0.000000   0.000000
    18  H   -0.000010  -0.000001   0.000002   0.000000   0.000000   0.000000
    19  H    0.000011   0.000000   0.000000   0.000000   0.000000   0.000000
    20  H   -0.000004   0.000000  -0.000007   0.000000   0.000000   0.000000
    21  H    0.001043  -0.000009   0.000763  -0.000634   0.000017   0.000000
    22  H    0.000007  -0.000001   0.000002  -0.000001   0.000000   0.000000
    23  H   -0.040185  -0.010028  -0.003176  -0.000319   0.000011   0.000000
    24  H   -0.031451   0.004413  -0.012891  -0.000502  -0.000032   0.000001
    25  H   -0.045396   0.396851   0.005052   0.000137  -0.000016   0.000000
    26  H   -0.043909   0.364026  -0.003110  -0.000504   0.000023   0.000000
    27  H   -0.031134   0.377031  -0.007555   0.000687   0.000225   0.000014
    28  H   -0.040958  -0.009415   0.370369  -0.056554  -0.002193   0.000397
    29  H   -0.029930   0.004240   0.370810  -0.043792   0.000247  -0.000300
    30  H    0.000139  -0.000041  -0.009451  -0.046100   0.371303  -0.040421
    31  H    0.000001   0.000000  -0.000141   0.004023  -0.037755   0.366432
    32  H    0.000000   0.000000   0.000004   0.000317   0.004827  -0.039568
    33  H    0.000013   0.000000  -0.000131   0.006302   0.000451   0.004797
             13         14         15         16         17         18
     1  C    0.000000   0.000000  -0.000010   0.000090   0.389120   0.388635
     2  N    0.000000   0.000003   0.000255   0.000584  -0.048444  -0.035068
     3  C    0.000000  -0.000005  -0.000048  -0.002261   0.001685   0.004431
     4  C    0.000000   0.000001  -0.000088   0.001047  -0.003283  -0.002755
     5  O    0.000000   0.000000   0.000000   0.000000   0.001087   0.009001
     6  C    0.000000   0.000010   0.000834  -0.000375  -0.000168   0.000306
     7  N   -0.000016   0.000018  -0.002958  -0.000767  -0.000003  -0.000010
     8  C   -0.000001  -0.000002   0.000241   0.000039   0.000000  -0.000001
     9  C    0.000100   0.005823  -0.049972  -0.002279   0.000000   0.000002
    10  C   -0.029261  -0.069768   0.434454  -0.051522   0.000000   0.000000
    11  C   -0.036525  -0.041592  -0.012834   0.002525   0.000000   0.000000
    12  C    0.542558  -0.030587  -0.042932  -0.000070   0.000000   0.000000
    13  C    4.832324   0.494513  -0.016866   0.002765   0.000000   0.000000
    14  C    0.494513   5.018868   0.484225  -0.044922   0.000000   0.000000
    15  C   -0.016866   0.484225   4.610072   0.300575   0.000000  -0.000002
    16  F    0.002765  -0.044922   0.300575   9.066102   0.000002   0.000002
    17  H    0.000000   0.000000   0.000000   0.000002   0.619726  -0.034277
    18  H    0.000000   0.000000  -0.000002   0.000002  -0.034277   0.552202
    19  H    0.000000   0.000000   0.000001   0.000073  -0.042968  -0.024570
    20  H    0.000000   0.000000   0.000007  -0.000043   0.000575   0.000201
    21  H   -0.000004  -0.000019   0.000684   0.008624  -0.000423  -0.000096
    22  H    0.000000   0.000000  -0.000004   0.000071   0.000998  -0.000269
    23  H    0.000000   0.000000  -0.000014  -0.000002   0.000017  -0.000019
    24  H    0.000000   0.000002   0.000266  -0.000121  -0.000010  -0.000021
    25  H    0.000000  -0.000001  -0.000060   0.000090   0.000000   0.000011
    26  H    0.000000   0.000000  -0.000002  -0.000004   0.000000   0.000000
    27  H   -0.000004  -0.000003   0.000245  -0.000022   0.000000   0.000000
    28  H   -0.000011  -0.000093   0.002667  -0.000008   0.000000   0.000000
    29  H    0.000038  -0.000161  -0.004174   0.000007   0.000000   0.000000
    30  H    0.004879   0.000237   0.003780  -0.000017   0.000000   0.000000
    31  H   -0.041059   0.004714   0.000748   0.000001   0.000000   0.000000
    32  H    0.370052  -0.037798   0.003786  -0.000021   0.000000   0.000000
    33  H   -0.039946   0.355115  -0.033057  -0.000268   0.000000   0.000000
             19         20         21         22         23         24
     1  C    0.380946  -0.005904   0.002864   0.002956  -0.000164  -0.000161
     2  N   -0.036303  -0.026581  -0.044665  -0.046051   0.004927   0.000221
     3  C   -0.007193   0.387606   0.377703   0.382763  -0.000361   0.003518
     4  C    0.004333   0.001528  -0.002704  -0.003823  -0.034913  -0.030681
     5  O    0.000487  -0.000082  -0.000065   0.000222   0.001132   0.003849
     6  C   -0.000109   0.000174  -0.002117  -0.001131   0.340451   0.348154
     7  N    0.000011  -0.000004   0.001043   0.000007  -0.040185  -0.031451
     8  C    0.000000   0.000000  -0.000009  -0.000001  -0.010028   0.004413
     9  C    0.000000  -0.000007   0.000763   0.000002  -0.003176  -0.012891
    10  C    0.000000   0.000000  -0.000634  -0.000001  -0.000319  -0.000502
    11  C    0.000000   0.000000   0.000017   0.000000   0.000011  -0.000032
    12  C    0.000000   0.000000   0.000000   0.000000   0.000000   0.000001
    13  C    0.000000   0.000000  -0.000004   0.000000   0.000000   0.000000
    14  C    0.000000   0.000000  -0.000019   0.000000   0.000000   0.000002
    15  C    0.000001   0.000007   0.000684  -0.000004  -0.000014   0.000266
    16  F    0.000073  -0.000043   0.008624   0.000071  -0.000002  -0.000121
    17  H   -0.042968   0.000575  -0.000423   0.000998   0.000017  -0.000010
    18  H   -0.024570   0.000201  -0.000096  -0.000269  -0.000019  -0.000021
    19  H    0.614819   0.002299   0.001212  -0.000245   0.000001  -0.000015
    20  H    0.002299   0.580019  -0.027210  -0.030125  -0.000004   0.000208
    21  H    0.001212  -0.027210   0.597985  -0.042634   0.000000  -0.000456
    22  H   -0.000245  -0.030125  -0.042634   0.619677   0.000314   0.000581
    23  H    0.000001  -0.000004   0.000000   0.000314   0.653462  -0.031999
    24  H   -0.000015   0.000208  -0.000456   0.000581  -0.031999   0.648398
    25  H    0.000000   0.000000  -0.000001   0.000000  -0.001478  -0.000145
    26  H    0.000000   0.000000   0.000002   0.000000   0.017219   0.000400
    27  H    0.000000   0.000000   0.000002   0.000000   0.000404  -0.000167
    28  H    0.000000   0.000000   0.000019  -0.000001   0.001197   0.001070
    29  H    0.000000   0.000000   0.000891   0.000001   0.001800   0.005450
    30  H    0.000000   0.000000   0.000000   0.000000   0.000001  -0.000001
    31  H    0.000000   0.000000   0.000000   0.000000   0.000000   0.000000
    32  H    0.000000   0.000000   0.000000   0.000000   0.000000   0.000000
    33  H    0.000000   0.000000   0.000000   0.000000   0.000000   0.000000
             25         26         27         28         29         30
     1  C    0.000003  -0.000001   0.000000   0.000000   0.000000   0.000000
     2  N   -0.000022   0.000012   0.000003   0.000001   0.000060   0.000000
     3  C    0.000002  -0.000001  -0.000001   0.000002  -0.000319   0.000000
     4  C    0.001056  -0.000823   0.000043  -0.000234  -0.000126   0.000000
     5  O    0.001789  -0.000051   0.000048   0.000001  -0.000006   0.000000
     6  C    0.002038  -0.012687   0.004024   0.000918  -0.013792  -0.000007
     7  N   -0.045396  -0.043909  -0.031134  -0.040958  -0.029930   0.000139
     8  C    0.396851   0.364026   0.377031  -0.009415   0.004240  -0.000041
     9  C    0.005052  -0.003110  -0.007555   0.370369   0.370810  -0.009451
    10  C    0.000137  -0.000504   0.000687  -0.056554  -0.043792  -0.046100
    11  C   -0.000016   0.000023   0.000225  -0.002193   0.000247   0.371303
    12  C    0.000000   0.000000   0.000014   0.000397  -0.000300  -0.040421
    13  C    0.000000   0.000000  -0.000004  -0.000011   0.000038   0.004879
    14  C   -0.000001   0.000000  -0.000003  -0.000093  -0.000161   0.000237
    15  C   -0.000060  -0.000002   0.000245   0.002667  -0.004174   0.003780
    16  F    0.000090  -0.000004  -0.000022  -0.000008   0.000007  -0.000017
    17  H    0.000000   0.000000   0.000000   0.000000   0.000000   0.000000
    18  H    0.000011   0.000000   0.000000   0.000000   0.000000   0.000000
    19  H    0.000000   0.000000   0.000000   0.000000   0.000000   0.000000
    20  H    0.000000   0.000000   0.000000   0.000000   0.000000   0.000000
    21  H   -0.000001   0.000002   0.000002   0.000019   0.000891   0.000000
    22  H    0.000000   0.000000   0.000000  -0.000001   0.000001   0.000000
    23  H   -0.001478   0.017219   0.000404   0.001197   0.001800   0.000001
    24  H   -0.000145   0.000400  -0.000167   0.001070   0.005450  -0.000001
    25  H    0.581973  -0.042276  -0.033981  -0.000488  -0.000265  -0.000001
    26  H   -0.042276   0.650783  -0.029589   0.005291   0.000096   0.000005
    27  H   -0.033981  -0.029589   0.609712   0.003293   0.000525   0.000006
    28  H   -0.000488   0.005291   0.003293   0.651948  -0.030416   0.006480
    29  H   -0.000265   0.000096   0.000525  -0.030416   0.624765   0.000859
    30  H   -0.000001   0.000005   0.000006   0.006480   0.000859   0.627343
    31  H    0.000000   0.000000   0.000000  -0.000004   0.000004  -0.005624
    32  H    0.000000   0.000000   0.000000   0.000000   0.000000  -0.000198
    33  H    0.000000   0.000000   0.000000   0.000003   0.000003   0.000014
             31         32         33
     1  C    0.000000   0.000000   0.000000
     2  N    0.000000   0.000000   0.000000
     3  C    0.000000   0.000000   0.000001
     4  C    0.000000   0.000000   0.000000
     5  O    0.000000   0.000000   0.000000
     6  C    0.000000   0.000000   0.000000
     7  N    0.000001   0.000000   0.000013
     8  C    0.000000   0.000000   0.000000
     9  C   -0.000141   0.000004  -0.000131
    10  C    0.004023   0.000317   0.006302
    11  C   -0.037755   0.004827   0.000451
    12  C    0.366432  -0.039568   0.004797
    13  C   -0.041059   0.370052  -0.039946
    14  C    0.004714  -0.037798   0.355115
    15  C    0.000748   0.003786  -0.033057
    16  F    0.000001  -0.000021  -0.000268
    17  H    0.000000   0.000000   0.000000
    18  H    0.000000   0.000000   0.000000
    19  H    0.000000   0.000000   0.000000
    20  H    0.000000   0.000000   0.000000
    21  H    0.000000   0.000000   0.000000
    22  H    0.000000   0.000000   0.000000
    23  H    0.000000   0.000000   0.000000
    24  H    0.000000   0.000000   0.000000
    25  H    0.000000   0.000000   0.000000
    26  H    0.000000   0.000000   0.000000
    27  H    0.000000   0.000000   0.000000
    28  H   -0.000004   0.000000   0.000003
    29  H    0.000004   0.000000   0.000003
    30  H   -0.005624  -0.000198   0.000014
    31  H    0.628685  -0.005677  -0.000173
    32  H   -0.005677   0.618938  -0.006648
    33  H   -0.000173  -0.006648   0.615780
 Mulliken atomic charges:
              1
     1  C   -0.164294
     2  N   -0.440072
     3  C   -0.182058
     4  C    0.571031
     5  O   -0.506911
     6  C   -0.095626
     7  N   -0.410574
     8  C   -0.162549
     9  C   -0.096475
    10  C    0.050261
    11  C   -0.125107
    12  C   -0.087788
    13  C   -0.083535
    14  C   -0.138580
    15  C    0.320182
    16  F   -0.279898
    17  H    0.116365
    18  H    0.142296
    19  H    0.107221
    20  H    0.117342
    21  H    0.129226
    22  H    0.116694
    23  H    0.101727
    24  H    0.092120
    25  H    0.135128
    26  H    0.095101
    27  H    0.106195
    28  H    0.096719
    29  H    0.113486
    30  H    0.086816
    31  H    0.085826
    32  H    0.091986
    33  H    0.097744
 Sum of Mulliken atomic charges =   0.00000
 Mulliken charges with hydrogens summed into heavy atoms:
              1
     1  C    0.201588
     2  N   -0.440072
     3  C    0.181204
     4  C    0.571031
     5  O   -0.506911
     6  C    0.098221
     7  N   -0.410574
     8  C    0.173875
     9  C    0.113731
    10  C    0.050261
    11  C   -0.038291
    12  C   -0.001962
    13  C    0.008451
    14  C   -0.040835
    15  C    0.320182
    16  F   -0.279898
 Sum of Mulliken charges with hydrogens summed into heavy atoms =   0.00000
 Electronic spatial extent (au):  <R**2>=           4166.1158
 Charge=              0.0000 electrons
 Dipole moment (field-independent basis, Debye):
    X=             -2.7232    Y=             -1.1772    Z=              2.6206  Tot=              3.9584
 Quadrupole moment (field-independent basis, Debye-Ang):
   XX=            -97.8960   YY=            -86.2511   ZZ=            -93.3784
   XY=             -7.8358   XZ=              6.8673   YZ=              3.1936
 Traceless Quadrupole moment (field-independent basis, Debye-Ang):
   XX=             -5.3875   YY=              6.2574   ZZ=             -0.8699
   XY=             -7.8358   XZ=              6.8673   YZ=              3.1936
 Octapole moment (field-independent basis, Debye-Ang**2):
  XXX=            -56.6545  YYY=            -12.0243  ZZZ=             -4.9271  XYY=              4.4941
  XXY=            -35.9904  XXZ=             18.5478  XZZ=             12.8596  YZZ=             -3.2308
  YYZ=             -4.3241  XYZ=             -2.5559
 Hexadecapole moment (field-independent basis, Debye-Ang**3):
 XXXX=          -3797.8266 YYYY=          -1209.5003 ZZZZ=           -446.3223 XXXY=            -75.3214
 XXXZ=             64.8693 YYYX=            -10.7811 YYYZ=              7.6403 ZZZX=             -2.6960
 ZZZY=             -0.0943 XXYY=           -806.3182 XXZZ=           -741.6746 YYZZ=           -276.9436
 XXYZ=             59.6372 YYXZ=             14.5066 ZZXY=            -10.2206
 N-N= 1.133566188948D+03 E-N=-4.019791271431D+03  KE= 7.447981275187D+02
 1\1\GINC-C02\SP\RB3LYP\6-31G(d,p)\C12H17F1N2O1\TUU61186\08-Jun-2026\0\
 \# b3lyp/6-31g(d,p)\\Generated by mdgx\\0,1\C,0,12.9843144,19.5644953,
 16.4526591\N,0,12.4965309,18.2903473,15.8920073\C,0,11.9167034,17.3542
 662,16.8774573\C,0,12.4177667,18.0963922,14.5079394\O,0,12.5749588,19.
 0085876,13.7142156\C,0,12.2525858,16.6526691,14.0030424\N,0,13.5744485
 ,16.0217994,13.7406475\C,0,14.1397973,16.2192189,12.3921465\C,0,13.555
 954,14.6007849,14.1839648\C,0,14.7430823,14.2022497,15.0686836\C,0,15.
 2487479,12.8942022,14.9359053\C,0,16.3314148,12.4559592,15.7144609\C,0
 ,16.9261601,13.3215604,16.6420547\C,0,16.4353362,14.6261286,16.7905798
 \C,0,15.3510348,15.0668071,16.0124393\F,0,14.9120842,16.3299497,16.188
 4451\H,0,12.1488694,20.270378,16.5389602\H,0,13.7540259,19.991961,15.7
 977767\H,0,13.4238263,19.3971982,17.444131\H,0,11.9810388,17.7719008,1
 7.8902011\H,0,12.4568951,16.4004773,16.8525605\H,0,10.8609759,17.17795
 33,16.6361664\H,0,11.6573967,16.6793194,13.0812594\H,0,11.6619193,16.0
 925946,14.7349978\H,0,14.7229081,17.1480413,12.3653577\H,0,13.3497131,
 16.2479454,11.6312274\H,0,14.8333492,15.4053744,12.1445538\H,0,13.5189
 59,13.9417084,13.3071929\H,0,12.6557112,14.37455,14.7670507\H,0,14.799
 6077,12.2078941,14.2232665\H,0,16.7084027,11.444093,15.597879\H,0,17.7
 640383,12.982193,17.2442004\H,0,16.8973431,15.2955,17.5104699\\Version
 =EM64L-G09RevC.01\State=1-A\HF=-752.0684677\RMSD=8.036e-09\Dipole=-0.1
 093722,-1.2801624,0.8801218\Quadrupole=2.521181,-3.5817994,1.0606184,0
 .9057643,-1.3419897,8.4805941\PG=C01 [X(C12H17F1N2O1)]\\@


 The cat could very well be man's best friend
 but would never stoop to admitting it.
                               -- Doug Larson
 Job cpu time:  0 days  0 hours  3 minutes 29.3 seconds.
 File lengths (MBytes):  RWF=     47 Int=      0 D2E=      0 Chk=      5 Scr=      1
 Normal termination of Gaussian 09 at Mon Jun  8 05:50:20 2026.
