 Entering Gaussian System, Link 0=/data/opt/apps/g09-C01/g09
 Initial command:
 /data/opt/apps/g09-C01/l1.exe /tmp/g09-tuu61186-120610e956b4d176x/Gau-120749.inp -scrdir=/tmp/g09-tuu61186-120610e956b4d176x/
 Entering Link 1 = /data/opt/apps/g09-C01/l1.exe PID=    120755.
  
 Copyright (c) 1988,1990,1992,1993,1995,1998,2003,2009,2011,
            Gaussian, Inc.  All Rights Reserved.
  
 This is part of the Gaussian(R) 09 program.  It is based on
 the Gaussian(R) 03 system (copyright 2003, Gaussian, Inc.),
 the Gaussian(R) 98 system (copyright 1998, Gaussian, Inc.),
 the Gaussian(R) 94 system (copyright 1995, Gaussian, Inc.),
 the Gaussian 92(TM) system (copyright 1992, Gaussian, Inc.),
 the Gaussian 90(TM) system (copyright 1990, Gaussian, Inc.),
 the Gaussian 88(TM) system (copyright 1988, Gaussian, Inc.),
 the Gaussian 86(TM) system (copyright 1986, Carnegie Mellon
 University), and the Gaussian 82(TM) system (copyright 1983,
 Carnegie Mellon University). Gaussian is a federally registered
 trademark of Gaussian, Inc.
  
 This software contains proprietary and confidential information,
 including trade secrets, belonging to Gaussian, Inc.
  
 This software is provided under written license and may be
 used, copied, transmitted, or stored only in accord with that
 written license.
  
 The following legend is applicable only to US Government
 contracts under FAR:
  
                    RESTRICTED RIGHTS LEGEND
  
 Use, reproduction and disclosure by the US Government is
 subject to restrictions as set forth in subparagraphs (a)
 and (c) of the Commercial Computer Software - Restricted
 Rights clause in FAR 52.227-19.
  
 Gaussian, Inc.
 340 Quinnipiac St., Bldg. 40, Wallingford CT 06492
  
  
 ---------------------------------------------------------------
 Warning -- This program may not be used in any manner that
 competes with the business of Gaussian, Inc. or will provide
 assistance to any competitor of Gaussian, Inc.  The licensee
 of this program is prohibited from giving any competitor of
 Gaussian, Inc. access to this program.  By using this program,
 the user acknowledges that Gaussian, Inc. is engaged in the
 business of creating and licensing software in the field of
 computational chemistry and represents and warrants to the
 licensee that it is not a competitor of Gaussian, Inc. and that
 it will not use this program in any manner prohibited above.
 ---------------------------------------------------------------
  

 Cite this work as:
 Gaussian 09, Revision C.01,
 M. J. Frisch, G. W. Trucks, H. B. Schlegel, G. E. Scuseria, 
 M. A. Robb, J. R. Cheeseman, G. Scalmani, V. Barone, B. Mennucci, 
 G. A. Petersson, H. Nakatsuji, M. Caricato, X. Li, H. P. Hratchian, 
 A. F. Izmaylov, J. Bloino, G. Zheng, J. L. Sonnenberg, M. Hada, 
 M. Ehara, K. Toyota, R. Fukuda, J. Hasegawa, M. Ishida, T. Nakajima, 
 Y. Honda, O. Kitao, H. Nakai, T. Vreven, J. A. Montgomery, Jr., 
 J. E. Peralta, F. Ogliaro, M. Bearpark, J. J. Heyd, E. Brothers, 
 K. N. Kudin, V. N. Staroverov, T. Keith, R. Kobayashi, J. Normand, 
 K. Raghavachari, A. Rendell, J. C. Burant, S. S. Iyengar, J. Tomasi, 
 M. Cossi, N. Rega, J. M. Millam, M. Klene, J. E. Knox, J. B. Cross, 
 V. Bakken, C. Adamo, J. Jaramillo, R. Gomperts, R. E. Stratmann, 
 O. Yazyev, A. J. Austin, R. Cammi, C. Pomelli, J. W. Ochterski, 
 R. L. Martin, K. Morokuma, V. G. Zakrzewski, G. A. Voth, 
 P. Salvador, J. J. Dannenberg, S. Dapprich, A. D. Daniels, 
 O. Farkas, J. B. Foresman, J. V. Ortiz, J. Cioslowski, 
 and D. J. Fox, Gaussian, Inc., Wallingford CT, 2010.
 
 ******************************************
 Gaussian 09:  EM64L-G09RevC.01 23-Sep-2011
                 8-Jun-2026 
 ******************************************
 %nprocshared=8
 Will use up to    8 processors via shared memory.
 %mem=14GB
 ------------------
 # b3lyp/6-31g(d,p)
 ------------------
 1/38=1/1;
 2/12=2,17=6,18=5,40=1/2;
 3/5=1,6=6,7=101,11=2,16=1,25=1,30=1,74=-5/1,2,3;
 4//1;
 5/5=2,38=5/2;
 6/7=2,8=2,9=2,10=2,28=1/1;
 99/5=1,9=1/99;
 -----------------
 Generated by mdgx
 -----------------
 Charge =  0 Multiplicity = 1
 Symbolic Z-Matrix:
 C                     10.50293   17.86931   15.50358 
 N                     11.95948   17.89602   15.73281 
 C                     12.50768   19.21422   16.11014 
 C                     12.69861   16.70956   15.79033 
 O                     12.1644   15.61598   15.85624 
 C                     14.22524   16.81408   15.63252 
 N                     14.63182   16.67742   14.21284 
 C                     14.74662   17.84016   13.31991 
 C                     15.37885   15.46731   13.77913 
 C                     15.26806   14.24298   14.6884 
 C                     14.23645   13.31084   14.47488 
 C                     14.12872   12.16798   15.2836 
 C                     15.05753   11.94212   16.31037 
 C                     16.09843   12.85794   16.52526 
 C                     16.20707   13.99983   15.71389 
 F                     17.21623   14.87062   15.9343 
 H                     9.98463   17.71462   16.45812 
 H                     10.24786   17.05304   14.81597 
 H                     10.17335   18.81715   15.05944 
 H                     11.69443   19.92615   16.30042 
 H                     13.13735   19.60297   15.30186 
 H                     13.10554   19.11733   17.025 
 H                     14.67273   16.04252   16.26652 
 H                     14.58377   17.77182   16.02531 
 H                     15.75958   18.25841   13.37094 
 H                     14.02226   18.6142   13.59647 
 H                     14.5492   17.54055   12.28301 
 H                     16.44017   15.72493   13.67855 
 H                     15.03536   15.17947   12.77773 
 H                     13.50762   13.47784   13.68666 
 H                     13.32395   11.45851   15.11466 
 H                     14.9719   11.05848   16.93614 
 H                     16.81807   12.68014   17.3189 
 
                          Input orientation:                          
 ---------------------------------------------------------------------
 Center     Atomic      Atomic             Coordinates (Angstroms)
 Number     Number       Type             X           Y           Z
 ---------------------------------------------------------------------
      1          6           0       10.502933   17.869307   15.503580
      2          7           0       11.959481   17.896019   15.732813
      3          6           0       12.507681   19.214216   16.110144
      4          6           0       12.698611   16.709556   15.790331
      5          8           0       12.164403   15.615981   15.856238
      6          6           0       14.225243   16.814078   15.632525
      7          7           0       14.631817   16.677421   14.212840
      8          6           0       14.746620   17.840162   13.319914
      9          6           0       15.378855   15.467307   13.779126
     10          6           0       15.268064   14.242979   14.688402
     11          6           0       14.236448   13.310841   14.474885
     12          6           0       14.128716   12.167982   15.283601
     13          6           0       15.057533   11.942124   16.310372
     14          6           0       16.098426   12.857943   16.525261
     15          6           0       16.207065   13.999832   15.713889
     16          9           0       17.216232   14.870624   15.934299
     17          1           0        9.984632   17.714616   16.458116
     18          1           0       10.247865   17.053036   14.815973
     19          1           0       10.173350   18.817150   15.059439
     20          1           0       11.694430   19.926149   16.300416
     21          1           0       13.137348   19.602971   15.301857
     22          1           0       13.105540   19.117335   17.024998
     23          1           0       14.672733   16.042517   16.266520
     24          1           0       14.583770   17.771817   16.025307
     25          1           0       15.759584   18.258405   13.370941
     26          1           0       14.022262   18.614199   13.596467
     27          1           0       14.549198   17.540546   12.283008
     28          1           0       16.440169   15.724935   13.678554
     29          1           0       15.035360   15.179474   12.777727
     30          1           0       13.507622   13.477841   13.686658
     31          1           0       13.323946   11.458512   15.114656
     32          1           0       14.971896   11.058484   16.936143
     33          1           0       16.818070   12.680142   17.318901
 ---------------------------------------------------------------------
                    Distance matrix (angstroms):
                    1          2          3          4          5
     1  C    0.000000
     2  N    1.474719   0.000000
     3  C    2.489119   1.476666   0.000000
     4  C    2.499650   1.399041   2.532204   0.000000
     5  O    2.821760   2.292553   3.623479   1.218863   0.000000
     6  C    3.871140   2.512833   2.989783   1.538321   2.394273
     7  N    4.487124   3.307064   3.814058   2.495354   3.148895
     8  C    4.772644   3.686916   3.832265   3.402290   4.248266
     9  C    5.702452   4.626841   5.264657   3.573770   3.830039
    10  C    6.043281   5.038077   5.861251   3.728315   3.589106
    11  C    5.981385   5.271700   6.364946   3.955579   3.393402
    12  C    6.760162   6.141480   7.277385   4.788305   4.009380
    13  C    7.518430   6.736495   7.708771   5.344470   4.698262
    14  C    7.580709   6.568185   7.312181   5.189777   4.850867
    15  C    6.895955   5.763905   6.405643   4.433700   4.356067
    16  F    7.365188   6.068528   6.408445   4.879682   5.107115
    17  H    1.097135   2.111635   2.955615   2.970146   3.085114
    18  H    1.097343   2.116802   3.384131   2.659607   2.611589
    19  H    1.097403   2.119477   2.590510   3.369437   3.853137
    20  H    2.507033   2.124583   1.097465   3.408085   4.358408
    21  H    3.160131   2.118202   1.095874   2.966976   4.141262
    22  H    3.262798   2.115373   1.097169   2.736311   3.809359
    23  H    4.615893   3.328970   3.843381   2.137487   2.577204
    24  H    4.115208   2.643458   2.529399   2.176566   3.244926
    25  H    5.686117   4.488936   4.357944   4.197849   5.107292
    26  H    4.071563   3.055294   2.995421   3.192609   4.188975
    27  H    5.181933   4.328296   4.649294   4.051732   4.707353
    28  H    6.571136   5.386107   5.792424   4.407758   4.799620
    29  H    5.933664   5.056993   5.811480   4.108202   4.232039
    30  H    5.622663   5.109187   6.307072   3.940040   3.329107
    31  H    7.014818   6.609491   7.861820   5.331138   4.379387
    32  H    8.271105   7.567994   8.559824   6.198009   5.460677
    33  H    8.372800   7.302529   7.920522   5.961765   5.693430
                    6          7          8          9         10
     6  C    0.000000
     7  N    1.483065   0.000000
     8  C    2.583187   1.470532   0.000000
     9  C    2.565093   1.486792   2.498207   0.000000
    10  C    2.930766   2.560757   3.883863   1.529064   0.000000
    11  C    3.689569   3.399830   4.702019   2.537620   1.406664
    12  C    4.660179   4.662047   6.034194   3.835601   2.440899
    13  C    4.988799   5.196529   6.620148   4.351709   2.822949
    14  C    4.467304   4.699644   6.076524   3.855882   2.445788
    15  C    3.442996   3.450223   4.755224   2.565682   1.411547
    16  F    3.579678   3.592650   4.663920   2.894262   2.396154
    17  H    4.413089   5.264349   5.704438   6.428455   6.564968
    18  H    4.067357   4.441159   4.805888   5.469611   5.754572
    19  H    4.556157   5.017280   4.989515   6.321229   6.856882
    20  H    4.066458   4.851850   4.748747   6.309768   6.904192
    21  H    3.011774   3.460958   3.102474   4.944368   5.800499
    22  H    2.915083   4.023796   4.248761   5.387611   5.821987
    23  H    1.094305   2.149971   3.452459   2.648887   2.466417
    24  H    1.095484   2.117793   2.711152   3.314854   3.835136
    25  H    3.091124   2.116640   1.097099   2.846366   4.254520
    26  H    2.725283   2.121928   1.095586   3.431711   4.674602
    27  H    3.442669   2.115671   1.097233   2.687940   4.144471
    28  H    3.148036   2.112541   2.733298   1.096756   2.142386
    29  H    3.387932   2.113348   2.730677   1.097103   2.140526
    30  H    3.928340   3.431909   4.549667   2.732771   2.165199
    31  H    5.455512   5.455347   6.780160   4.698588   3.422652
    32  H    5.948426   6.253358   7.688890   5.437839   3.909100
    33  H    5.162949   5.514124   6.848987   4.729655   3.429942
                   11         12         13         14         15
    11  C    0.000000
    12  C    1.404192   0.000000
    13  C    2.432402   1.402845   0.000000
    14  C    2.806444   2.428482   1.402982   0.000000
    15  C    2.427586   2.803633   2.431332   1.405005   0.000000
    16  F    3.666323   4.154568   3.657530   2.376892   1.351028
    17  H    6.434624   7.022682   7.686210   7.808346   7.285065
    18  H    5.479887   6.256471   7.175483   7.399293   6.755766
    19  H    6.868036   7.739936   8.525613   8.530377   7.748586
    20  H    7.318246   8.194438   8.663441   8.330983   7.471889
    21  H    6.440714   7.500813   7.961959   7.467269   6.402195
    22  H    6.441848   7.236909   7.470249   6.956084   6.125954
    23  H    3.295809   4.034118   4.118643   3.498723   2.613837
    24  H    4.735477   5.670993   5.855854   5.166265   4.118245
    25  H    5.293111   6.588721   7.002038   6.263350   4.881095
    26  H    5.379879   6.664192   7.276926   6.784009   5.527135
    27  H    4.774154   6.168047   6.915230   6.505659   5.201551
    28  H    3.364279   4.535516   4.811217   4.054649   2.678228
    29  H    2.647715   4.021255   4.791712   4.534714   3.374240
    30  H    1.086451   2.156783   3.412407   3.892841   3.416011
    31  H    2.161733   1.086068   2.160773   3.412617   3.889700
    32  H    3.416400   2.161674   1.086160   2.162393   3.416295
    33  H    3.892427   3.411361   2.159002   1.085985   2.165866
                   16         17         18         19         20
    16  F    0.000000
    17  H    7.788370   0.000000
    18  H    7.387267   1.789865   0.000000
    19  H    8.120507   1.790948   1.782394   0.000000
    20  H    7.495510   2.799850   3.542726   2.254681   0.000000
    21  H    6.279520   3.852589   3.884246   3.075966   1.784259
    22  H    6.010155   3.468291   4.160220   3.542777   1.780570
    23  H    2.820123   4.981055   4.764944   5.422184   4.894286
    24  H    3.918553   4.619813   4.558422   4.634375   3.614570
    25  H    4.491067   6.570878   5.824095   5.862528   5.280973
    26  H    5.448050   5.029984   4.262687   4.122572   3.801494
    27  H    5.251046   6.188465   5.015480   5.337259   5.475434
    28  H    2.533872   7.304708   6.434454   7.123318   6.859038
    29  H    3.849095   6.744039   5.530351   6.486759   6.789851
    30  H    4.554725   6.167877   4.968238   6.442835   7.190277
    31  H    5.240631   7.217668   6.391415   8.004927   8.704150
    32  H    4.535763   8.330991   7.921252   9.313698   9.475306
    33  H    2.621807   8.531281   8.279761   9.323108   8.932727
                   21         22         23         24         25
    21  H    0.000000
    22  H    1.790551   0.000000
    23  H    3.995599   3.533538   0.000000
    24  H    2.443081   2.234942   1.748306   0.000000
    25  H    3.523125   4.597156   3.804705   2.943632   0.000000
    26  H    2.160809   3.584460   3.763753   2.631381   1.787663
    27  H    3.919230   5.201623   4.257666   3.749598   1.778751
    28  H    5.346298   5.816083   3.149961   3.625354   2.641267
    29  H    5.435163   6.104938   3.612203   4.179826   3.218108
    30  H    6.345328   6.565827   3.819782   5.006556   5.293846
    31  H    8.148747   7.896498   4.915193   6.501866   7.430439
    32  H    8.890709   8.272621   5.037706   6.785949   8.072793
    33  H    8.095785   7.436848   4.124991   5.708821   6.915476
                   26         27         28         29         30
    26  H    0.000000
    27  H    1.776391   0.000000
    28  H    3.768403   2.969809   0.000000
    29  H    3.673423   2.460846   1.755706   0.000000
    30  H    5.162864   4.422747   3.694500   2.460833   0.000000
    31  H    7.348224   6.819869   5.474998   4.715478   2.480041
    32  H    8.315291   7.990461   5.877370   5.854828   4.307730
    33  H    7.542287   7.357414   4.760851   5.481512   4.978813
                   31         32         33
    31  H    0.000000
    32  H    2.488690   0.000000
    33  H    4.308129   2.486893   0.000000
 Stoichiometry    C12H17FN2O
 Framework group  C1[X(C12H17FN2O)]
 Deg. of freedom    93
 Full point group                 C1      NOp   1
 Largest Abelian subgroup         C1      NOp   1
 Largest concise Abelian subgroup C1      NOp   1
                         Standard orientation:                         
 ---------------------------------------------------------------------
 Center     Atomic      Atomic             Coordinates (Angstroms)
 Number     Number       Type             X           Y           Z
 ---------------------------------------------------------------------
      1          6           0        3.909347   -1.709240    0.297306
      2          7           0        3.089576   -0.658790   -0.334617
      3          6           0        3.842472    0.311623   -1.154367
      4          6           0        1.692485   -0.729953   -0.314881
      5          8           0        1.099870   -1.735718    0.035646
      6          6           0        0.910112    0.557588   -0.625626
      7          7           0        0.615927    1.322178    0.610634
      8          6           0        1.534600    2.345891    1.130745
      9          6           0       -0.787614    1.425720    1.090117
     10          6           0       -1.759622    0.366951    0.568346
     11          6           0       -1.925401   -0.834491    1.280918
     12          6           0       -2.828839   -1.811372    0.832300
     13          6           0       -3.581884   -1.592581   -0.330896
     14          6           0       -3.434834   -0.393016   -1.043483
     15          6           0       -2.532615    0.585036   -0.592424
     16          9           0       -2.404495    1.734667   -1.290429
     17          1           0        4.045291   -2.540424   -0.405799
     18          1           0        3.410963   -2.077981    1.202738
     19          1           0        4.890308   -1.304926    0.577555
     20          1           0        4.884388   -0.013031   -1.270298
     21          1           0        3.829373    1.296719   -0.674415
     22          1           0        3.388466    0.384204   -2.150555
     23          1           0       -0.000637    0.266020   -1.157630
     24          1           0        1.475672    1.188338   -1.320162
     25          1           0        1.295787    3.324808    0.696792
     26          1           0        2.573463    2.090256    0.894688
     27          1           0        1.438939    2.419649    2.221308
     28          1           0       -1.180301    2.413922    0.821553
     29          1           0       -0.791292    1.380128    2.186266
     30          1           0       -1.343500   -1.017939    2.179869
     31          1           0       -2.943580   -2.738519    1.386176
     32          1           0       -4.279086   -2.349869   -0.677547
     33          1           0       -4.020522   -0.224262   -1.942291
 ---------------------------------------------------------------------
 Rotational constants (GHZ):      0.8516926      0.3166310      0.2749508
 Standard basis: 6-31G(d,p) (6D, 7F)
 There are   325 symmetry adapted basis functions of A   symmetry.
 Integral buffers will be    131072 words long.
 Raffenetti 2 integral format.
 Two-electron integral symmetry is turned on.
   325 basis functions,   567 primitive gaussians,   325 cartesian basis functions
    60 alpha electrons       60 beta electrons
       nuclear repulsion energy      1125.4275916989 Hartrees.
 NAtoms=   33 NActive=   33 NUniq=   33 SFac= 1.00D+00 NAtFMM=   60 NAOKFM=F Big=F
 One-electron integrals computed using PRISM.
 NBasis=   325 RedAO= T  NBF=   325
 NBsUse=   325 1.00D-06 NBFU=   325
 Harris functional with IExCor=  402 diagonalized for initial guess.
 ExpMin= 1.61D-01 ExpMax= 7.00D+03 ExpMxC= 1.05D+03 IAcc=1 IRadAn=         1 AccDes= 0.00D+00
 HarFok:  IExCor=  402 AccDes= 0.00D+00 IRadAn=         1 IDoV= 1
 ScaDFX=  1.000000  1.000000  1.000000  1.000000
 FoFCou: FMM=F IPFlag=           0 FMFlag=      100000 FMFlg1=           0
         NFxFlg=           0 DoJE=T BraDBF=F KetDBF=T FulRan=T
         Omega=  0.000000  0.000000  1.000000  0.000000  0.000000 ICntrl=     500 IOpCl=  0
         NMat0=    1 NMatS0=    1 NMatT0=    0 NMatD0=    1 NMtDS0=    0 NMtDT0=    0
         I1Cent=           4 NGrid=           0.
 Petite list used in FoFCou.
 Initial guess orbital symmetries:
       Occupied  (A) (A) (A) (A) (A) (A) (A) (A) (A) (A) (A) (A)
                 (A) (A) (A) (A) (A) (A) (A) (A) (A) (A) (A) (A)
                 (A) (A) (A) (A) (A) (A) (A) (A) (A) (A) (A) (A)
                 (A) (A) (A) (A) (A) (A) (A) (A) (A) (A) (A) (A)
                 (A) (A) (A) (A) (A) (A) (A) (A) (A) (A) (A) (A)
       Virtual   (A) (A) (A) (A) (A) (A) (A) (A) (A) (A) (A) (A)
                 (A) (A) (A) (A) (A) (A) (A) (A) (A) (A) (A) (A)
                 (A) (A) (A) (A) (A) (A) (A) (A) (A) (A) (A) (A)
                 (A) (A) (A) (A) (A) (A) (A) (A) (A) (A) (A) (A)
                 (A) (A) (A) (A) (A) (A) (A) (A) (A) (A) (A) (A)
                 (A) (A) (A) (A) (A) (A) (A) (A) (A) (A) (A) (A)
                 (A) (A) (A) (A) (A) (A) (A) (A) (A) (A) (A) (A)
                 (A) (A) (A) (A) (A) (A) (A) (A) (A) (A) (A) (A)
                 (A) (A) (A) (A) (A) (A) (A) (A) (A) (A) (A) (A)
                 (A) (A) (A) (A) (A) (A) (A) (A) (A) (A) (A) (A)
                 (A) (A) (A) (A) (A) (A) (A) (A) (A) (A) (A) (A)
                 (A) (A) (A) (A) (A) (A) (A) (A) (A) (A) (A) (A)
                 (A) (A) (A) (A) (A) (A) (A) (A) (A) (A) (A) (A)
                 (A) (A) (A) (A) (A) (A) (A) (A) (A) (A) (A) (A)
                 (A) (A) (A) (A) (A) (A) (A) (A) (A) (A) (A) (A)
                 (A) (A) (A) (A) (A) (A) (A) (A) (A) (A) (A) (A)
                 (A) (A) (A) (A) (A) (A) (A) (A) (A) (A) (A) (A)
                 (A) (A) (A) (A) (A) (A) (A) (A) (A) (A) (A) (A)
                 (A) (A) (A) (A) (A) (A) (A) (A) (A) (A) (A) (A)
                 (A) (A) (A) (A) (A) (A) (A) (A) (A) (A) (A) (A)
                 (A) (A) (A) (A) (A) (A) (A) (A) (A) (A) (A) (A)
                 (A) (A) (A) (A) (A) (A) (A) (A) (A) (A) (A) (A)
                 (A)
 The electronic state of the initial guess is 1-A.
 Requested convergence on RMS density matrix=1.00D-08 within 128 cycles.
 Requested convergence on MAX density matrix=1.00D-06.
 Requested convergence on             energy=1.00D-06.
 No special actions if energy rises.
 Keep R1 ints in memory in canonical form, NReq=1421145624.
 Integral accuracy reduced to 1.0D-05 until final iterations.
 Initial convergence to 1.0D-05 achieved.  Increase integral accuracy.
 SCF Done:  E(RB3LYP) =  -752.067176722     A.U. after   15 cycles
             Convg  =    0.8366D-08             -V/T =  2.0098

 **********************************************************************

            Population analysis using the SCF density.

 **********************************************************************

 Orbital symmetries:
       Occupied  (A) (A) (A) (A) (A) (A) (A) (A) (A) (A) (A) (A)
                 (A) (A) (A) (A) (A) (A) (A) (A) (A) (A) (A) (A)
                 (A) (A) (A) (A) (A) (A) (A) (A) (A) (A) (A) (A)
                 (A) (A) (A) (A) (A) (A) (A) (A) (A) (A) (A) (A)
                 (A) (A) (A) (A) (A) (A) (A) (A) (A) (A) (A) (A)
       Virtual   (A) (A) (A) (A) (A) (A) (A) (A) (A) (A) (A) (A)
                 (A) (A) (A) (A) (A) (A) (A) (A) (A) (A) (A) (A)
                 (A) (A) (A) (A) (A) (A) (A) (A) (A) (A) (A) (A)
                 (A) (A) (A) (A) (A) (A) (A) (A) (A) (A) (A) (A)
                 (A) (A) (A) (A) (A) (A) (A) (A) (A) (A) (A) (A)
                 (A) (A) (A) (A) (A) (A) (A) (A) (A) (A) (A) (A)
                 (A) (A) (A) (A) (A) (A) (A) (A) (A) (A) (A) (A)
                 (A) (A) (A) (A) (A) (A) (A) (A) (A) (A) (A) (A)
                 (A) (A) (A) (A) (A) (A) (A) (A) (A) (A) (A) (A)
                 (A) (A) (A) (A) (A) (A) (A) (A) (A) (A) (A) (A)
                 (A) (A) (A) (A) (A) (A) (A) (A) (A) (A) (A) (A)
                 (A) (A) (A) (A) (A) (A) (A) (A) (A) (A) (A) (A)
                 (A) (A) (A) (A) (A) (A) (A) (A) (A) (A) (A) (A)
                 (A) (A) (A) (A) (A) (A) (A) (A) (A) (A) (A) (A)
                 (A) (A) (A) (A) (A) (A) (A) (A) (A) (A) (A) (A)
                 (A) (A) (A) (A) (A) (A) (A) (A) (A) (A) (A) (A)
                 (A) (A) (A) (A) (A) (A) (A) (A) (A) (A) (A) (A)
                 (A) (A) (A) (A) (A) (A) (A) (A) (A) (A) (A) (A)
                 (A) (A) (A) (A) (A) (A) (A) (A) (A) (A) (A) (A)
                 (A) (A) (A) (A) (A) (A) (A) (A) (A) (A) (A) (A)
                 (A) (A) (A) (A) (A) (A) (A) (A) (A) (A) (A) (A)
                 (A) (A) (A) (A) (A) (A) (A) (A) (A) (A) (A) (A)
                 (A)
 The electronic state is 1-A.
 Alpha  occ. eigenvalues --  -24.70497 -19.09849 -14.35306 -14.32050 -10.26917
 Alpha  occ. eigenvalues --  -10.26872 -10.22546 -10.21350 -10.21292 -10.21133
 Alpha  occ. eigenvalues --  -10.20841 -10.19852 -10.19362 -10.19226 -10.19074
 Alpha  occ. eigenvalues --  -10.18574  -1.21461  -1.01719  -0.91341  -0.89769
 Alpha  occ. eigenvalues --   -0.84773  -0.76379  -0.73767  -0.73260  -0.71356
 Alpha  occ. eigenvalues --   -0.69007  -0.67365  -0.61521  -0.60733  -0.57859
 Alpha  occ. eigenvalues --   -0.53250  -0.52798  -0.49257  -0.48492  -0.47930
 Alpha  occ. eigenvalues --   -0.47533  -0.46622  -0.45807  -0.44662  -0.44450
 Alpha  occ. eigenvalues --   -0.43207  -0.43048  -0.41101  -0.40490  -0.40101
 Alpha  occ. eigenvalues --   -0.39619  -0.38520  -0.38308  -0.38046  -0.37302
 Alpha  occ. eigenvalues --   -0.35892  -0.35204  -0.34715  -0.33989  -0.33031
 Alpha  occ. eigenvalues --   -0.24810  -0.24179  -0.23518  -0.22460  -0.18347
 Alpha virt. eigenvalues --   -0.00734   0.00565   0.02633   0.07597   0.09427
 Alpha virt. eigenvalues --    0.10497   0.11672   0.13104   0.13688   0.13891
 Alpha virt. eigenvalues --    0.14641   0.15081   0.15172   0.15703   0.15790
 Alpha virt. eigenvalues --    0.16846   0.17179   0.17771   0.18673   0.18837
 Alpha virt. eigenvalues --    0.19321   0.20038   0.21462   0.22334   0.22700
 Alpha virt. eigenvalues --    0.26377   0.27018   0.28210   0.28720   0.30507
 Alpha virt. eigenvalues --    0.32333   0.33550   0.35234   0.35474   0.39641
 Alpha virt. eigenvalues --    0.47478   0.48185   0.49918   0.50238   0.51083
 Alpha virt. eigenvalues --    0.51707   0.52747   0.53324   0.54445   0.54585
 Alpha virt. eigenvalues --    0.56305   0.56940   0.57721   0.59664   0.59816
 Alpha virt. eigenvalues --    0.60373   0.60936   0.61186   0.61417   0.63091
 Alpha virt. eigenvalues --    0.63989   0.64903   0.66090   0.66355   0.67024
 Alpha virt. eigenvalues --    0.71582   0.72592   0.73605   0.74283   0.75759
 Alpha virt. eigenvalues --    0.76637   0.78533   0.80388   0.80525   0.81382
 Alpha virt. eigenvalues --    0.81588   0.82496   0.83284   0.83725   0.84382
 Alpha virt. eigenvalues --    0.85535   0.85890   0.87088   0.88249   0.88708
 Alpha virt. eigenvalues --    0.89027   0.89643   0.90306   0.91200   0.92306
 Alpha virt. eigenvalues --    0.92859   0.94518   0.95346   0.96781   0.98466
 Alpha virt. eigenvalues --    0.99755   1.01822   1.01947   1.03192   1.06005
 Alpha virt. eigenvalues --    1.06296   1.07585   1.10937   1.13717   1.14799
 Alpha virt. eigenvalues --    1.17192   1.20395   1.20647   1.22540   1.24975
 Alpha virt. eigenvalues --    1.25534   1.26646   1.28446   1.28971   1.34314
 Alpha virt. eigenvalues --    1.35733   1.36616   1.38870   1.40473   1.40953
 Alpha virt. eigenvalues --    1.41055   1.42001   1.43137   1.44700   1.45244
 Alpha virt. eigenvalues --    1.46982   1.48557   1.51061   1.54581   1.60018
 Alpha virt. eigenvalues --    1.63065   1.65197   1.68072   1.70685   1.72550
 Alpha virt. eigenvalues --    1.75109   1.76216   1.76936   1.79598   1.80510
 Alpha virt. eigenvalues --    1.80841   1.82881   1.83760   1.85498   1.86009
 Alpha virt. eigenvalues --    1.86824   1.87446   1.88979   1.89830   1.90950
 Alpha virt. eigenvalues --    1.92106   1.93198   1.93842   1.94398   1.94834
 Alpha virt. eigenvalues --    1.96066   1.97090   1.98350   1.99170   1.99903
 Alpha virt. eigenvalues --    2.01945   2.02326   2.03051   2.03913   2.04393
 Alpha virt. eigenvalues --    2.04917   2.06553   2.07613   2.08305   2.09163
 Alpha virt. eigenvalues --    2.09399   2.10659   2.12763   2.14606   2.18426
 Alpha virt. eigenvalues --    2.19385   2.21033   2.23020   2.25971   2.26530
 Alpha virt. eigenvalues --    2.28528   2.29808   2.30207   2.30679   2.31025
 Alpha virt. eigenvalues --    2.32646   2.35315   2.35617   2.38108   2.38549
 Alpha virt. eigenvalues --    2.39855   2.40540   2.42089   2.43813   2.44705
 Alpha virt. eigenvalues --    2.47469   2.49666   2.50444   2.50605   2.51828
 Alpha virt. eigenvalues --    2.53911   2.55175   2.56706   2.57153   2.59272
 Alpha virt. eigenvalues --    2.59736   2.61131   2.63125   2.63807   2.64597
 Alpha virt. eigenvalues --    2.66782   2.67789   2.69141   2.70192   2.70467
 Alpha virt. eigenvalues --    2.73835   2.75140   2.77131   2.78521   2.79812
 Alpha virt. eigenvalues --    2.81485   2.84636   2.84865   2.86393   2.88279
 Alpha virt. eigenvalues --    2.89596   2.91306   2.96038   2.99700   3.02416
 Alpha virt. eigenvalues --    3.04742   3.06763   3.09724   3.11542   3.12042
 Alpha virt. eigenvalues --    3.17577   3.19169   3.20593   3.23303   3.24110
 Alpha virt. eigenvalues --    3.29211   3.33888   3.35815   3.35860   3.40537
 Alpha virt. eigenvalues --    3.41718   3.42564   3.43182   3.44297   3.46805
 Alpha virt. eigenvalues --    3.47505   3.49092   3.51711   3.83736   3.95882
 Alpha virt. eigenvalues --    4.01070   4.13008   4.15634   4.16993   4.23599
 Alpha virt. eigenvalues --    4.35136   4.42334   4.44895   4.47869   4.49687
 Alpha virt. eigenvalues --    4.51715   4.61124   4.70611   4.81687   5.60182
          Condensed to atoms (all electrons):
              1          2          3          4          5          6
     1  C    4.786080   0.277867  -0.048731  -0.021150   0.006779   0.006102
     2  N    0.277867   7.086089   0.277014   0.249493  -0.099455  -0.109272
     3  C   -0.048731   0.277014   4.813135  -0.017440   0.002635  -0.000642
     4  C   -0.021150   0.249493  -0.017440   4.448228   0.583266   0.330866
     5  O    0.006779  -0.099455   0.002635   0.583266   8.070508  -0.079298
     6  C    0.006102  -0.109272  -0.000642   0.330866  -0.079298   5.006467
     7  N   -0.000259   0.000240  -0.000106  -0.055115  -0.001904   0.332077
     8  C   -0.000021   0.000274  -0.001864  -0.000726  -0.000019  -0.038862
     9  C    0.000003  -0.000125   0.000006   0.000657  -0.000003  -0.039429
    10  C    0.000001  -0.000006   0.000001  -0.000742  -0.000720  -0.006507
    11  C   -0.000001   0.000018   0.000000   0.000321   0.003412  -0.000778
    12  C    0.000000   0.000000   0.000000   0.000026  -0.000351   0.000096
    13  C    0.000000   0.000000   0.000000   0.000003  -0.000002   0.000015
    14  C    0.000000   0.000000   0.000000  -0.000003   0.000010  -0.000248
    15  C    0.000000  -0.000004   0.000000   0.000313  -0.000138  -0.003331
    16  F    0.000000   0.000000   0.000000   0.000025   0.000000   0.000776
    17  H    0.389358  -0.047355   0.000873  -0.002827   0.001232  -0.000150
    18  H    0.389187  -0.035841   0.004507  -0.003033   0.008269   0.000262
    19  H    0.380859  -0.037386  -0.006076   0.004360   0.000490  -0.000099
    20  H   -0.006113  -0.027792   0.386759   0.001258  -0.000077   0.000158
    21  H    0.002756  -0.052955   0.379774  -0.001624  -0.000073  -0.001260
    22  H    0.003367  -0.041372   0.389224  -0.003335   0.000225  -0.000898
    23  H   -0.000160   0.004519  -0.000287  -0.033896   0.002732   0.358557
    24  H   -0.000292   0.001384   0.001577  -0.048031   0.003846   0.336134
    25  H   -0.000003   0.000075  -0.000008  -0.000581  -0.000003  -0.002874
    26  H    0.000060   0.003275  -0.001598   0.001402  -0.000008  -0.001766
    27  H    0.000005  -0.000068   0.000064   0.000174   0.000013   0.004410
    28  H    0.000000   0.000002   0.000000  -0.000295   0.000004  -0.002137
    29  H    0.000000   0.000009   0.000000   0.000203  -0.000012   0.005112
    30  H    0.000000  -0.000003   0.000000   0.000109   0.000635  -0.000010
    31  H    0.000000   0.000000   0.000000   0.000002  -0.000009   0.000000
    32  H    0.000000   0.000000   0.000000   0.000000   0.000000   0.000000
    33  H    0.000000   0.000000   0.000000   0.000000   0.000000  -0.000004
              7          8          9         10         11         12
     1  C   -0.000259  -0.000021   0.000003   0.000001  -0.000001   0.000000
     2  N    0.000240   0.000274  -0.000125  -0.000006   0.000018   0.000000
     3  C   -0.000106  -0.001864   0.000006   0.000001   0.000000   0.000000
     4  C   -0.055115  -0.000726   0.000657  -0.000742   0.000321   0.000026
     5  O   -0.001904  -0.000019  -0.000003  -0.000720   0.003412  -0.000351
     6  C    0.332077  -0.038862  -0.039429  -0.006507  -0.000778   0.000096
     7  N    6.856080   0.333961   0.318248  -0.039271   0.003143  -0.000074
     8  C    0.333961   4.771168  -0.044754   0.003279   0.000000   0.000003
     9  C    0.318248  -0.044754   4.853208   0.339074  -0.050868   0.006037
    10  C   -0.039271   0.003279   0.339074   5.037895   0.506202  -0.022857
    11  C    0.003143   0.000000  -0.050868   0.506202   4.846849   0.517457
    12  C   -0.000074   0.000003   0.006037  -0.022857   0.517457   4.829914
    13  C    0.000024   0.000000  -0.000161  -0.030897  -0.032425   0.536565
    14  C   -0.000071   0.000003   0.007829  -0.069201  -0.045372  -0.027906
    15  C   -0.000783   0.000011  -0.045378   0.426344  -0.017157  -0.043998
    16  F   -0.000568  -0.000010   0.002056  -0.060529   0.002536  -0.000090
    17  H   -0.000003   0.000000   0.000000   0.000000   0.000000   0.000000
    18  H   -0.000025   0.000004   0.000000   0.000001  -0.000001   0.000000
    19  H    0.000010   0.000001   0.000000   0.000000   0.000000   0.000000
    20  H   -0.000006   0.000026   0.000000   0.000000   0.000000   0.000000
    21  H    0.000274   0.000913  -0.000016   0.000001   0.000000   0.000000
    22  H   -0.000036   0.000034   0.000003  -0.000001   0.000000   0.000000
    23  H   -0.023371   0.003422  -0.012485   0.006127   0.000768  -0.000118
    24  H   -0.043698  -0.005182   0.003231   0.000218   0.000124  -0.000002
    25  H   -0.060524   0.372798  -0.003372   0.000022   0.000020   0.000000
    26  H   -0.032849   0.382594   0.003799  -0.000162  -0.000004   0.000000
    27  H   -0.042558   0.383906  -0.002814   0.000215  -0.000044   0.000000
    28  H   -0.062221  -0.002464   0.357677  -0.029916   0.006097  -0.000209
    29  H   -0.052018  -0.003736   0.361992  -0.020607  -0.011329   0.000061
    30  H    0.000921  -0.000052  -0.009343  -0.040173   0.371415  -0.039791
    31  H    0.000000   0.000000  -0.000157   0.004085  -0.035786   0.366465
    32  H    0.000000   0.000000   0.000005   0.000387   0.004642  -0.038866
    33  H    0.000001   0.000000  -0.000150   0.005999   0.000414   0.004670
             13         14         15         16         17         18
     1  C    0.000000   0.000000   0.000000   0.000000   0.389358   0.389187
     2  N    0.000000   0.000000  -0.000004   0.000000  -0.047355  -0.035841
     3  C    0.000000   0.000000   0.000000   0.000000   0.000873   0.004507
     4  C    0.000003  -0.000003   0.000313   0.000025  -0.002827  -0.003033
     5  O   -0.000002   0.000010  -0.000138   0.000000   0.001232   0.008269
     6  C    0.000015  -0.000248  -0.003331   0.000776  -0.000150   0.000262
     7  N    0.000024  -0.000071  -0.000783  -0.000568  -0.000003  -0.000025
     8  C    0.000000   0.000003   0.000011  -0.000010   0.000000   0.000004
     9  C   -0.000161   0.007829  -0.045378   0.002056   0.000000   0.000000
    10  C   -0.030897  -0.069201   0.426344  -0.060529   0.000000   0.000001
    11  C   -0.032425  -0.045372  -0.017157   0.002536   0.000000  -0.000001
    12  C    0.536565  -0.027906  -0.043998  -0.000090   0.000000   0.000000
    13  C    4.833556   0.488473  -0.012611   0.002811   0.000000   0.000000
    14  C    0.488473   5.047956   0.463412  -0.046890   0.000000   0.000000
    15  C   -0.012611   0.463412   4.639465   0.305236   0.000000   0.000000
    16  F    0.002811  -0.046890   0.305236   9.082765   0.000000   0.000000
    17  H    0.000000   0.000000   0.000000   0.000000   0.612479  -0.033973
    18  H    0.000000   0.000000   0.000000   0.000000  -0.033973   0.556721
    19  H    0.000000   0.000000   0.000000   0.000000  -0.042241  -0.025646
    20  H    0.000000   0.000000   0.000000   0.000000   0.001833   0.000090
    21  H    0.000000   0.000000   0.000000   0.000000  -0.000557  -0.000031
    22  H    0.000000   0.000000   0.000000   0.000000   0.000557  -0.000254
    23  H   -0.000067   0.000195   0.000504   0.001628   0.000019  -0.000020
    24  H   -0.000001   0.000004  -0.000190  -0.000014  -0.000010  -0.000022
    25  H    0.000000   0.000000  -0.000062  -0.000004   0.000000   0.000000
    26  H    0.000000   0.000000   0.000002   0.000000   0.000008  -0.000012
    27  H    0.000000   0.000000   0.000014   0.000000   0.000000   0.000001
    28  H   -0.000026   0.000213  -0.012947   0.005921   0.000000   0.000000
    29  H    0.000012  -0.000203   0.005903   0.000198   0.000000   0.000000
    30  H    0.004901   0.000112   0.004149  -0.000018   0.000000   0.000002
    31  H   -0.041446   0.004572   0.000847   0.000001   0.000000   0.000000
    32  H    0.370079  -0.038129   0.003662  -0.000020   0.000000   0.000000
    33  H   -0.039589   0.356115  -0.033441  -0.000553   0.000000   0.000000
             19         20         21         22         23         24
     1  C    0.380859  -0.006113   0.002756   0.003367  -0.000160  -0.000292
     2  N   -0.037386  -0.027792  -0.052955  -0.041372   0.004519   0.001384
     3  C   -0.006076   0.386759   0.379774   0.389224  -0.000287   0.001577
     4  C    0.004360   0.001258  -0.001624  -0.003335  -0.033896  -0.048031
     5  O    0.000490  -0.000077  -0.000073   0.000225   0.002732   0.003846
     6  C   -0.000099   0.000158  -0.001260  -0.000898   0.358557   0.336134
     7  N    0.000010  -0.000006   0.000274  -0.000036  -0.023371  -0.043698
     8  C    0.000001   0.000026   0.000913   0.000034   0.003422  -0.005182
     9  C    0.000000   0.000000  -0.000016   0.000003  -0.012485   0.003231
    10  C    0.000000   0.000000   0.000001  -0.000001   0.006127   0.000218
    11  C    0.000000   0.000000   0.000000   0.000000   0.000768   0.000124
    12  C    0.000000   0.000000   0.000000   0.000000  -0.000118  -0.000002
    13  C    0.000000   0.000000   0.000000   0.000000  -0.000067  -0.000001
    14  C    0.000000   0.000000   0.000000   0.000000   0.000195   0.000004
    15  C    0.000000   0.000000   0.000000   0.000000   0.000504  -0.000190
    16  F    0.000000   0.000000   0.000000   0.000000   0.001628  -0.000014
    17  H   -0.042241   0.001833  -0.000557   0.000557   0.000019  -0.000010
    18  H   -0.025646   0.000090  -0.000031  -0.000254  -0.000020  -0.000022
    19  H    0.619371   0.000447   0.001748  -0.000100   0.000000  -0.000013
    20  H    0.000447   0.583170  -0.032952  -0.026229   0.000000   0.000352
    21  H    0.001748  -0.032952   0.627459  -0.042816  -0.000105   0.000725
    22  H   -0.000100  -0.026229  -0.042816   0.593362   0.000374   0.000200
    23  H    0.000000   0.000000  -0.000105   0.000374   0.585566  -0.026808
    24  H   -0.000013   0.000352   0.000725   0.000200  -0.026808   0.694708
    25  H    0.000000   0.000002  -0.000008   0.000002   0.000282   0.005281
    26  H   -0.000045   0.000024   0.001320   0.000167  -0.000015  -0.001963
    27  H    0.000000  -0.000001  -0.000038  -0.000002  -0.000219  -0.000334
    28  H    0.000000   0.000000   0.000001   0.000000   0.001874   0.000981
    29  H    0.000000   0.000000   0.000000   0.000000  -0.000039  -0.000375
    30  H    0.000000   0.000000   0.000000   0.000000   0.000000   0.000003
    31  H    0.000000   0.000000   0.000000   0.000000  -0.000001   0.000000
    32  H    0.000000   0.000000   0.000000   0.000000  -0.000001   0.000000
    33  H    0.000000   0.000000   0.000000   0.000000   0.000017   0.000000
             25         26         27         28         29         30
     1  C   -0.000003   0.000060   0.000005   0.000000   0.000000   0.000000
     2  N    0.000075   0.003275  -0.000068   0.000002   0.000009  -0.000003
     3  C   -0.000008  -0.001598   0.000064   0.000000   0.000000   0.000000
     4  C   -0.000581   0.001402   0.000174  -0.000295   0.000203   0.000109
     5  O   -0.000003  -0.000008   0.000013   0.000004  -0.000012   0.000635
     6  C   -0.002874  -0.001766   0.004410  -0.002137   0.005112  -0.000010
     7  N   -0.060524  -0.032849  -0.042558  -0.062221  -0.052018   0.000921
     8  C    0.372798   0.382594   0.383906  -0.002464  -0.003736  -0.000052
     9  C   -0.003372   0.003799  -0.002814   0.357677   0.361992  -0.009343
    10  C    0.000022  -0.000162   0.000215  -0.029916  -0.020607  -0.040173
    11  C    0.000020  -0.000004  -0.000044   0.006097  -0.011329   0.371415
    12  C    0.000000   0.000000   0.000000  -0.000209   0.000061  -0.039791
    13  C    0.000000   0.000000   0.000000  -0.000026   0.000012   0.004901
    14  C    0.000000   0.000000   0.000000   0.000213  -0.000203   0.000112
    15  C   -0.000062   0.000002   0.000014  -0.012947   0.005903   0.004149
    16  F   -0.000004   0.000000   0.000000   0.005921   0.000198  -0.000018
    17  H    0.000000   0.000008   0.000000   0.000000   0.000000   0.000000
    18  H    0.000000  -0.000012   0.000001   0.000000   0.000000   0.000002
    19  H    0.000000  -0.000045   0.000000   0.000000   0.000000   0.000000
    20  H    0.000002   0.000024  -0.000001   0.000000   0.000000   0.000000
    21  H   -0.000008   0.001320  -0.000038   0.000001   0.000000   0.000000
    22  H    0.000002   0.000167  -0.000002   0.000000   0.000000   0.000000
    23  H    0.000282  -0.000015  -0.000219   0.001874  -0.000039   0.000000
    24  H    0.005281  -0.001963  -0.000334   0.000981  -0.000375   0.000003
    25  H    0.681352  -0.041399  -0.052659   0.011656  -0.002758   0.000002
    26  H   -0.041399   0.601812  -0.023161  -0.000315   0.000245   0.000001
    27  H   -0.052659  -0.023161   0.618715  -0.003151   0.009022  -0.000005
    28  H    0.011656  -0.000315  -0.003151   0.702774  -0.063526   0.000151
    29  H   -0.002758   0.000245   0.009022  -0.063526   0.673488   0.003639
    30  H    0.000002   0.000001  -0.000005   0.000151   0.003639   0.609340
    31  H    0.000000   0.000000   0.000000   0.000003  -0.000007  -0.005595
    32  H    0.000000   0.000000   0.000000   0.000000   0.000000  -0.000189
    33  H    0.000000   0.000000   0.000000   0.000001   0.000002   0.000013
             31         32         33
     1  C    0.000000   0.000000   0.000000
     2  N    0.000000   0.000000   0.000000
     3  C    0.000000   0.000000   0.000000
     4  C    0.000002   0.000000   0.000000
     5  O   -0.000009   0.000000   0.000000
     6  C    0.000000   0.000000  -0.000004
     7  N    0.000000   0.000000   0.000001
     8  C    0.000000   0.000000   0.000000
     9  C   -0.000157   0.000005  -0.000150
    10  C    0.004085   0.000387   0.005999
    11  C   -0.035786   0.004642   0.000414
    12  C    0.366465  -0.038866   0.004670
    13  C   -0.041446   0.370079  -0.039589
    14  C    0.004572  -0.038129   0.356115
    15  C    0.000847   0.003662  -0.033441
    16  F    0.000001  -0.000020  -0.000553
    17  H    0.000000   0.000000   0.000000
    18  H    0.000000   0.000000   0.000000
    19  H    0.000000   0.000000   0.000000
    20  H    0.000000   0.000000   0.000000
    21  H    0.000000   0.000000   0.000000
    22  H    0.000000   0.000000   0.000000
    23  H   -0.000001  -0.000001   0.000017
    24  H    0.000000   0.000000   0.000000
    25  H    0.000000   0.000000   0.000000
    26  H    0.000000   0.000000   0.000000
    27  H    0.000000   0.000000   0.000000
    28  H    0.000003   0.000000   0.000001
    29  H   -0.000007   0.000000   0.000002
    30  H   -0.005595  -0.000189   0.000013
    31  H    0.624142  -0.005599  -0.000173
    32  H   -0.005599   0.618196  -0.006538
    33  H   -0.000173  -0.006538   0.616972
 Mulliken atomic charges:
              1
     1  C   -0.165695
     2  N   -0.448627
     3  C   -0.178818
     4  C    0.568092
     5  O   -0.501982
     6  C   -0.093468
     7  N   -0.429519
     8  C   -0.154707
     9  C   -0.044770
    10  C   -0.008261
    11  C   -0.069653
    12  C   -0.087032
    13  C   -0.079215
    14  C   -0.140869
    15  C    0.320178
    16  F   -0.295257
    17  H    0.120758
    18  H    0.139813
    19  H    0.104321
    20  H    0.119049
    21  H    0.117463
    22  H    0.127526
    23  H    0.131007
    24  H    0.078165
    25  H    0.092764
    26  H    0.108586
    27  H    0.108516
    28  H    0.089854
    29  H    0.094725
    30  H    0.099787
    31  H    0.088656
    32  H    0.092370
    33  H    0.096243
 Sum of Mulliken atomic charges =   0.00000
 Mulliken charges with hydrogens summed into heavy atoms:
              1
     1  C    0.199196
     2  N   -0.448627
     3  C    0.185220
     4  C    0.568092
     5  O   -0.501982
     6  C    0.115705
     7  N   -0.429519
     8  C    0.155159
     9  C    0.139809
    10  C   -0.008261
    11  C    0.030134
    12  C    0.001624
    13  C    0.013155
    14  C   -0.044626
    15  C    0.320178
    16  F   -0.295257
 Sum of Mulliken charges with hydrogens summed into heavy atoms =   0.00000
 Electronic spatial extent (au):  <R**2>=           4228.5446
 Charge=              0.0000 electrons
 Dipole moment (field-independent basis, Debye):
    X=              2.2971    Y=              1.1277    Z=             -0.1389  Tot=              2.5628
 Quadrupole moment (field-independent basis, Debye-Ang):
   XX=            -78.3926   YY=            -96.8615   ZZ=            -90.3320
   XY=              5.8700   XZ=             -1.2412   YZ=              0.7185
 Traceless Quadrupole moment (field-independent basis, Debye-Ang):
   XX=             10.1361   YY=             -8.3328   ZZ=             -1.8033
   XY=              5.8700   XZ=             -1.2412   YZ=              0.7185
 Octapole moment (field-independent basis, Debye-Ang**2):
  XXX=             55.5020  YYY=              8.0918  ZZZ=             -7.0455  XYY=             -3.9468
  XXY=            -22.1216  XXZ=            -22.1476  XZZ=              1.6378  YZZ=             -0.2729
  YYZ=              5.9894  XYZ=             -3.0239
 Hexadecapole moment (field-independent basis, Debye-Ang**3):
 XXXX=          -3533.5633 YYYY=          -1174.2564 ZZZZ=           -546.3968 XXXY=            -17.5716
 XXXZ=             61.0498 YYYX=             -4.5768 YYYZ=            -17.7612 ZZZX=             25.5016
 ZZZY=            -17.8307 XXYY=           -784.5284 XXZZ=           -707.7633 YYZZ=           -282.2282
 XXYZ=              0.9867 YYXZ=              0.8053 ZZXY=             -5.6484
 N-N= 1.125427591699D+03 E-N=-4.003672845238D+03  KE= 7.447576133413D+02
 1\1\GINC-C02\SP\RB3LYP\6-31G(d,p)\C12H17F1N2O1\TUU61186\08-Jun-2026\0\
 \# b3lyp/6-31g(d,p)\\Generated by mdgx\\0,1\C,0,10.5029327,17.8693069,
 15.5035802\N,0,11.9594813,17.8960191,15.7328132\C,0,12.5076806,19.2142
 156,16.1101436\C,0,12.698611,16.7095556,15.7903309\O,0,12.1644033,15.6
 159811,15.8562377\C,0,14.2252427,16.8140777,15.6325247\N,0,14.6318168,
 16.6774212,14.2128403\C,0,14.74662,17.8401624,13.3199136\C,0,15.378854
 7,15.4673067,13.7791257\C,0,15.2680642,14.2429791,14.6884024\C,0,14.23
 64481,13.3108411,14.4748845\C,0,14.1287155,12.1679823,15.2836008\C,0,1
 5.0575332,11.9421241,16.3103719\C,0,16.0984263,12.8579425,16.5252614\C
 ,0,16.2070653,13.9998318,15.7138886\F,0,17.2162317,14.8706242,15.93429
 87\H,0,9.9846315,17.7146157,16.4581162\H,0,10.2478648,17.0530356,14.81
 59727\H,0,10.1733496,18.8171504,15.059439\H,0,11.69443,19.9261491,16.3
 004164\H,0,13.1373483,19.6029708,15.3018566\H,0,13.1055395,19.1173349,
 17.0249983\H,0,14.6727325,16.0425172,16.2665197\H,0,14.5837702,17.7718
 167,16.0253073\H,0,15.7595837,18.2584051,13.3709409\H,0,14.0222618,18.
 6141987,13.5964671\H,0,14.5491976,17.5405463,12.2830076\H,0,16.4401688
 ,15.7249349,13.6785539\H,0,15.0353601,15.1794744,12.7777274\H,0,13.507
 622,13.4778406,13.6866584\H,0,13.3239458,11.4585121,15.1146563\H,0,14.
 9718961,11.0584841,16.9361429\H,0,16.8180699,12.6801419,17.3189013\\Ve
 rsion=EM64L-G09RevC.01\State=1-A\HF=-752.0671767\RMSD=8.366e-09\Dipole
 =-0.1602447,0.9848705,-0.1447665\Quadrupole=-5.6852628,7.2545289,-1.56
 92661,-4.749543,1.5312737,-0.2411397\PG=C01 [X(C12H17F1N2O1)]\\@


 NOBODY LOSES ALL THE TIME
 I HAD AN UNCLE NAMED
 SOL WHO WAS A BORN FAILURE AND
 NEARLY EVERYBODY SAID HE SHOULD HAVE GONE
 INTO VAUDEVILLE PERHAPS BECAUSE MY UNCLE SOL COULD
 SING MCCANN HE WAS A DIVER ON XMAS EVE LIKE HELL ITSELF WHICH
 MAY OR MAY NOT ACCOUNT FOR THE FACT THAT MY UNCLE
 SOL INDULGED IN THAT POSSIBLY MOST INEXCUSABLE
 OF ALL TO USE A HIGHFALOOTIN PHRASE
 LUXURIES THAT IS OR TO
 WIT FARMING AND BE
 IT NEEDLESSLY
 ADDED
 MY UNCLE SOL'S FARM
 FAILED BECAUSE THE CHICKENS
 ATE THE VEGETABLES SO
 MY UNCLE SOL HAD A
 CHICKEN FARM TILL THE
 SKUNKS ATE THE CHICKENS WHEN 
 MY UNCLE SOL
 HAD A SKUNK FARM BUT
 THE SKUNKS CAUGHT COLD AND
 DIED AND SO
 MY UNCLE SOL IMITATED THE
 SKUNKS IN A SUBTLE MANNER
 OR BY DROWNING HIMSELF IN THE WATERTANK
 BUT SOMEBODY WHO'D GIVEN MY UNCLE SOL A VICTOR
 VICTROLA AND RECORDS WHILE HE LIVED PRESENTED TO
 HIM UPON THE AUSPICIOUS OCCASION OF HIS DECEASE A
 SCRUMPTIOUS NOT TO MENTION SPLENDIFEROUS FUNERAL WITH
 TALL BOYS IN BLACK GLOVES AND FLOWERS AND EVERYTHING AND
 I REMEMBER WE ALL CRIED LIKE THE MISSOURI
 WHEN MY UNCLE SOL'S COFFIN LURCHED BECAUSE
 SOMEBODY PRESSED A BUTTON
 (AND DOWN WENT
 MY UNCLE
 SOL
 AND STARTED A WORM FARM)
           E. E. CUMMINGS
 Job cpu time:  0 days  0 hours  3 minutes 26.7 seconds.
 File lengths (MBytes):  RWF=     47 Int=      0 D2E=      0 Chk=      5 Scr=      1
 Normal termination of Gaussian 09 at Mon Jun  8 05:50:19 2026.
