 Entering Gaussian System, Link 0=/data/opt/apps/g09-C01/g09
 Initial command:
 /data/opt/apps/g09-C01/l1.exe /tmp/g09-tuu61186-120606e956b4d176x/Gau-120746.inp -scrdir=/tmp/g09-tuu61186-120606e956b4d176x/
 Entering Link 1 = /data/opt/apps/g09-C01/l1.exe PID=    120758.
  
 Copyright (c) 1988,1990,1992,1993,1995,1998,2003,2009,2011,
            Gaussian, Inc.  All Rights Reserved.
  
 This is part of the Gaussian(R) 09 program.  It is based on
 the Gaussian(R) 03 system (copyright 2003, Gaussian, Inc.),
 the Gaussian(R) 98 system (copyright 1998, Gaussian, Inc.),
 the Gaussian(R) 94 system (copyright 1995, Gaussian, Inc.),
 the Gaussian 92(TM) system (copyright 1992, Gaussian, Inc.),
 the Gaussian 90(TM) system (copyright 1990, Gaussian, Inc.),
 the Gaussian 88(TM) system (copyright 1988, Gaussian, Inc.),
 the Gaussian 86(TM) system (copyright 1986, Carnegie Mellon
 University), and the Gaussian 82(TM) system (copyright 1983,
 Carnegie Mellon University). Gaussian is a federally registered
 trademark of Gaussian, Inc.
  
 This software contains proprietary and confidential information,
 including trade secrets, belonging to Gaussian, Inc.
  
 This software is provided under written license and may be
 used, copied, transmitted, or stored only in accord with that
 written license.
  
 The following legend is applicable only to US Government
 contracts under FAR:
  
                    RESTRICTED RIGHTS LEGEND
  
 Use, reproduction and disclosure by the US Government is
 subject to restrictions as set forth in subparagraphs (a)
 and (c) of the Commercial Computer Software - Restricted
 Rights clause in FAR 52.227-19.
  
 Gaussian, Inc.
 340 Quinnipiac St., Bldg. 40, Wallingford CT 06492
  
  
 ---------------------------------------------------------------
 Warning -- This program may not be used in any manner that
 competes with the business of Gaussian, Inc. or will provide
 assistance to any competitor of Gaussian, Inc.  The licensee
 of this program is prohibited from giving any competitor of
 Gaussian, Inc. access to this program.  By using this program,
 the user acknowledges that Gaussian, Inc. is engaged in the
 business of creating and licensing software in the field of
 computational chemistry and represents and warrants to the
 licensee that it is not a competitor of Gaussian, Inc. and that
 it will not use this program in any manner prohibited above.
 ---------------------------------------------------------------
  

 Cite this work as:
 Gaussian 09, Revision C.01,
 M. J. Frisch, G. W. Trucks, H. B. Schlegel, G. E. Scuseria, 
 M. A. Robb, J. R. Cheeseman, G. Scalmani, V. Barone, B. Mennucci, 
 G. A. Petersson, H. Nakatsuji, M. Caricato, X. Li, H. P. Hratchian, 
 A. F. Izmaylov, J. Bloino, G. Zheng, J. L. Sonnenberg, M. Hada, 
 M. Ehara, K. Toyota, R. Fukuda, J. Hasegawa, M. Ishida, T. Nakajima, 
 Y. Honda, O. Kitao, H. Nakai, T. Vreven, J. A. Montgomery, Jr., 
 J. E. Peralta, F. Ogliaro, M. Bearpark, J. J. Heyd, E. Brothers, 
 K. N. Kudin, V. N. Staroverov, T. Keith, R. Kobayashi, J. Normand, 
 K. Raghavachari, A. Rendell, J. C. Burant, S. S. Iyengar, J. Tomasi, 
 M. Cossi, N. Rega, J. M. Millam, M. Klene, J. E. Knox, J. B. Cross, 
 V. Bakken, C. Adamo, J. Jaramillo, R. Gomperts, R. E. Stratmann, 
 O. Yazyev, A. J. Austin, R. Cammi, C. Pomelli, J. W. Ochterski, 
 R. L. Martin, K. Morokuma, V. G. Zakrzewski, G. A. Voth, 
 P. Salvador, J. J. Dannenberg, S. Dapprich, A. D. Daniels, 
 O. Farkas, J. B. Foresman, J. V. Ortiz, J. Cioslowski, 
 and D. J. Fox, Gaussian, Inc., Wallingford CT, 2010.
 
 ******************************************
 Gaussian 09:  EM64L-G09RevC.01 23-Sep-2011
                 8-Jun-2026 
 ******************************************
 %nprocshared=8
 Will use up to    8 processors via shared memory.
 %mem=14GB
 ------------------
 # b3lyp/6-31g(d,p)
 ------------------
 1/38=1/1;
 2/12=2,17=6,18=5,40=1/2;
 3/5=1,6=6,7=101,11=2,16=1,25=1,30=1,74=-5/1,2,3;
 4//1;
 5/5=2,38=5/2;
 6/7=2,8=2,9=2,10=2,28=1/1;
 99/5=1,9=1/99;
 -----------------
 Generated by mdgx
 -----------------
 Charge =  0 Multiplicity = 1
 Symbolic Z-Matrix:
 C                     12.59299   16.71896   16.74941 
 N                     12.65641   17.7403   15.68725 
 C                     11.34796   18.2609   15.2501 
 C                     13.84579   18.31412   15.22515 
 O                     13.8592   19.37612   14.62578 
 C                     15.14721   17.50453   15.37994 
 N                     15.40382   16.66623   14.19016 
 C                     16.1517   17.3938   13.13651 
 C                     15.69622   15.21922   14.13248 
 C                     14.65958   14.37622   14.86242 
 C                     13.47151   14.01118   14.20291 
 C                     12.50825   13.22367   14.85409 
 C                     12.72578   12.79107   16.17104 
 C                     13.90828   13.14644   16.83773 
 C                     14.87168   13.93473   16.18574 
 F                     16.00193   14.27099   16.84478 
 H                     13.347    16.92739   17.51822 
 H                     12.76723   15.72945   16.31644 
 H                     11.60415   16.72735   17.22534 
 H                     10.5815   17.48071   15.34141 
 H                     11.40341   18.57588   14.20043 
 H                     11.06894   19.12006   15.8727 
 H                     15.08572   16.87126   16.27064 
 H                     15.97387   18.20582   15.55109 
 H                     15.44767   17.90792   12.47044 
 H                     16.74686   16.70898   12.51876 
 H                     16.83694   18.13146   13.5729 
 H                     16.69214   15.02867   14.55041 
 H                     15.71395   14.88487   13.08727 
 H                     13.29147   14.342    13.18376 
 H                     11.59309   12.94963   14.33748 
 H                     11.97937   12.18274   16.67355 
 H                     14.07426   12.81184   17.85757 
 
                          Input orientation:                          
 ---------------------------------------------------------------------
 Center     Atomic      Atomic             Coordinates (Angstroms)
 Number     Number       Type             X           Y           Z
 ---------------------------------------------------------------------
      1          6           0       12.592995   16.718959   16.749410
      2          7           0       12.656407   17.740302   15.687247
      3          6           0       11.347963   18.260897   15.250104
      4          6           0       13.845793   18.314121   15.225147
      5          8           0       13.859202   19.376116   14.625778
      6          6           0       15.147212   17.504528   15.379943
      7          7           0       15.403823   16.666229   14.190158
      8          6           0       16.151701   17.393799   13.136515
      9          6           0       15.696224   15.219222   14.132480
     10          6           0       14.659579   14.376218   14.862420
     11          6           0       13.471514   14.011177   14.202913
     12          6           0       12.508249   13.223665   14.854088
     13          6           0       12.725780   12.791072   16.171043
     14          6           0       13.908280   13.146444   16.837735
     15          6           0       14.871677   13.934730   16.185740
     16          9           0       16.001931   14.270990   16.844777
     17          1           0       13.346996   16.927386   17.518222
     18          1           0       12.767226   15.729453   16.316440
     19          1           0       11.604154   16.727354   17.225340
     20          1           0       10.581501   17.480710   15.341409
     21          1           0       11.403411   18.575878   14.200428
     22          1           0       11.068939   19.120056   15.872702
     23          1           0       15.085723   16.871256   16.270641
     24          1           0       15.973870   18.205817   15.551086
     25          1           0       15.447674   17.907922   12.470441
     26          1           0       16.746856   16.708980   12.518756
     27          1           0       16.836944   18.131460   13.572902
     28          1           0       16.692141   15.028674   14.550407
     29          1           0       15.713955   14.884874   13.087271
     30          1           0       13.291471   14.341999   13.183758
     31          1           0       11.593091   12.949626   14.337483
     32          1           0       11.979365   12.182740   16.673551
     33          1           0       14.074257   12.811843   17.857567
 ---------------------------------------------------------------------
                    Distance matrix (angstroms):
                    1          2          3          4          5
     1  C    0.000000
     2  N    1.474907   0.000000
     3  C    2.485074   1.474496   0.000000
     4  C    2.537207   1.399087   2.498522   0.000000
     5  O    3.629542   2.291140   2.817768   1.219532   0.000000
     6  C    3.002763   2.520741   3.875983   1.540485   2.393863
     7  N    3.801751   3.308052   4.485137   2.492832   3.149462
     8  C    5.115937   4.340896   5.319306   3.244470   3.376839
     9  C    4.327536   4.244247   5.422937   3.767813   4.571407
    10  C    3.649649   4.001262   5.119358   4.037436   5.069081
    11  C    3.819493   4.095610   4.864792   4.438510   5.395525
    12  C    3.976997   4.595227   5.184283   5.276310   6.303162
    13  C    3.972460   4.973303   5.715373   5.714299   6.858228
    14  C    3.807971   4.898402   5.935775   5.413800   6.610899
    15  C    3.641709   4.431511   5.657534   4.599374   5.750415
    16  F    4.197915   4.956665   6.334173   4.859942   5.964693
    17  H    1.096828   2.119013   3.304352   2.725807   3.824247
    18  H    1.094048   2.109900   3.091859   3.005784   4.165202
    19  H    1.097446   2.121092   2.513751   3.397580   4.342684
    20  H    2.570766   2.119488   1.097494   3.371008   3.853313
    21  H    3.370544   2.116321   1.097319   2.661540   2.617673
    22  H    2.976008   2.111437   1.097104   2.963068   3.066912
    23  H    2.542854   2.645215   4.116242   2.170793   3.237940
    24  H    3.882917   3.352731   4.636016   2.155615   2.587976
    25  H    5.279432   4.262289   4.965758   3.212386   3.053574
    26  H    5.929005   5.275864   6.246340   4.279860   4.460012
    27  H    5.486024   4.701101   5.740964   3.422026   3.394799
    28  H    4.949311   4.993244   6.284671   4.398992   5.189555
    29  H    5.149322   4.925641   5.927669   4.451996   5.096898
    30  H    4.341852   4.268398   4.837848   4.500255   5.267265
    31  H    4.585310   5.089506   5.394679   5.885611   6.820421
    32  H    4.578163   5.684863   6.274461   6.570788   7.711798
    33  H    4.322928   5.568689   6.627498   6.103842   7.319863
                    6          7          8          9         10
     6  C    0.000000
     7  N    1.477898   0.000000
     8  C    2.460534   1.482849   0.000000
     9  C    2.660865   1.477381   2.434787   0.000000
    10  C    3.208105   2.499997   3.782984   1.522532   0.000000
    11  C    4.049304   3.283791   4.445530   2.532522   1.407019
    12  C    5.056326   4.547131   5.797829   3.829641   2.440629
    13  C    5.357782   5.110055   6.490792   4.344559   2.822190
    14  C    4.759518   4.651366   6.063992   3.848579   2.445131
    15  C    3.669971   3.424415   4.785540   2.558452   1.411054
    16  F    3.651307   3.625176   4.850317   2.889491   2.396397
    17  H    2.854139   3.921066   5.223339   4.460936   3.909554
    18  H    3.113239   3.514296   4.933219   3.689045   2.743432
    19  H    4.069736   4.863492   6.151652   5.346521   4.521820
    20  H    4.565936   5.024296   5.991347   5.721559   5.147622
    21  H    4.068795   4.432850   5.007542   5.449771   5.355185
    22  H    4.414188   5.257703   6.025044   6.297352   6.034679
    23  H    1.094603   2.114624   3.351433   2.770138   2.896532
    24  H    1.097479   2.132466   2.553654   3.318024   4.107000
    25  H    2.952661   2.121592   1.097101   3.170687   4.337694
    26  H    3.373152   2.144563   1.097640   2.434607   3.910405
    27  H    2.552182   2.140500   1.097331   3.177341   4.528313
    28  H    3.033939   2.114504   2.808021   1.096733   2.157397
    29  H    3.527056   2.117962   2.547303   1.097526   2.126404
    30  H    4.274177   3.298017   4.182898   2.729914   2.165825
    31  H    5.870743   5.325084   6.478728   4.693484   3.422583
    32  H    6.326934   6.164076   7.554743   5.430682   3.908336
    33  H    5.413977   5.483970   6.899161   4.722555   3.429399
                   11         12         13         14         15
    11  C    0.000000
    12  C    1.404309   0.000000
    13  C    2.432758   1.403149   0.000000
    14  C    2.807279   2.429177   1.403236   0.000000
    15  C    2.428560   2.804408   2.431675   1.405214   0.000000
    16  F    3.667418   4.155183   3.657490   2.376558   1.350879
    17  H    4.417132   4.638820   4.394302   3.882478   3.613330
    18  H    2.813449   2.912819   2.942267   2.871531   2.768904
    19  H    4.472105   4.326206   4.226571   4.275764   4.422242
    20  H    4.656824   4.698113   5.222923   5.665008   5.629607
    21  H    5.011342   5.504009   6.252676   6.535175   6.124589
    22  H    5.887377   6.154397   6.549058   6.684100   6.437889
    23  H    3.880879   4.685607   4.714568   3.947429   2.945541
    24  H    5.066988   6.108860   6.344596   5.614213   4.456434
    25  H    4.700137   6.021981   6.876432   6.641887   5.470053
    26  H    4.565347   5.963806   6.697630   6.277162   4.965837
    27  H    5.357216   6.668245   7.223001   6.639774   5.319938
    28  H    3.395363   4.566753   4.833771   4.065040   2.680508
    29  H    2.652648   4.019677   4.777326   4.510940   3.348540
    30  H    1.086525   2.157339   3.413100   3.893758   3.416844
    31  H    2.161821   1.086045   2.161034   3.413224   3.890451
    32  H    3.416686   2.161871   1.086148   2.162497   3.416562
    33  H    3.893353   3.412164   2.159441   1.086078   2.166047
                   16         17         18         19         20
    16  F    0.000000
    17  H    3.815580   0.000000
    18  H    3.587418   1.793170   0.000000
    19  H    5.051633   1.778565   1.781753   0.000000
    20  H    6.476378   3.562674   2.965633   2.272127   0.000000
    21  H    6.831619   4.183636   3.799952   3.550695   1.782349
    22  H    6.985182   3.564418   3.818019   2.800197   1.790901
    23  H    2.816106   2.140743   2.584810   3.612960   4.639280
    24  H    4.142136   3.521999   4.123192   4.907484   5.444942
    25  H    5.715705   5.554673   5.169356   6.226994   5.666093
    26  H    5.021271   6.049911   5.587427   6.971346   6.824555
    27  H    5.128902   5.403247   5.464362   6.534058   6.533120
    28  H    2.512889   4.858296   4.360611   5.994031   6.631598
    29  H    3.818197   5.422884   4.452422   6.116274   6.177506
    30  H    4.555732   5.047266   3.466058   4.987118   4.674494
    31  H    5.241221   5.386637   3.608643   4.755110   4.749937
    32  H    4.535542   5.009546   3.650674   4.593340   5.638892
    33  H    2.621217   4.193061   3.549063   4.672510   6.350490
                   21         22         23         24         25
    21  H    0.000000
    22  H    1.790113   0.000000
    23  H    4.555320   4.620607   0.000000
    24  H    4.780200   4.999761   1.757162   0.000000
    25  H    4.449166   5.676087   3.955655   3.139426   0.000000
    26  H    5.904721   7.021466   4.106378   3.468870   1.768523
    27  H    5.487674   6.287788   3.454371   2.159545   1.787585
    28  H    6.377759   7.078720   2.989129   3.407567   3.763645
    29  H    5.783028   6.875431   3.804501   4.143260   3.096806
    30  H    4.745958   5.916071   4.375538   5.265795   4.227746
    31  H    5.631116   6.380113   5.595959   6.949216   6.551973
    32  H    6.878973   7.042484   5.638615   7.313922   7.903987
    33  H    7.330224   7.263964   4.474398   6.166307   7.541712
                   26         27         28         29         30
    26  H    0.000000
    27  H    1.772792   0.000000
    28  H    2.637049   3.256342   0.000000
    29  H    2.171971   3.469476   1.765869   0.000000
    30  H    4.240815   5.204020   3.728782   2.484442   0.000000
    31  H    6.633385   7.411746   5.510725   4.721200   2.480782
    32  H    7.776769   8.282353   5.900622   5.840384   4.308442
    33  H    7.129752   7.368115   4.764973   5.453603   4.979822
                   31         32         33
    31  H    0.000000
    32  H    2.488882   0.000000
    33  H    4.308847   2.487215   0.000000
 Stoichiometry    C12H17FN2O
 Framework group  C1[X(C12H17FN2O)]
 Deg. of freedom    93
 Full point group                 C1      NOp   1
 Largest Abelian subgroup         C1      NOp   1
 Largest concise Abelian subgroup C1      NOp   1
                         Standard orientation:                         
 ---------------------------------------------------------------------
 Center     Atomic      Atomic             Coordinates (Angstroms)
 Number     Number       Type             X           Y           Z
 ---------------------------------------------------------------------
      1          6           0       -0.513562    1.947922   -0.975375
      2          7           0       -1.744192    1.552144   -0.265261
      3          6           0       -2.393627    2.633791    0.497899
      4          6           0       -2.366244    0.307818   -0.414083
      5          8           0       -3.534460    0.130580   -0.112228
      6          6           0       -1.498841   -0.886079   -0.856029
      7          7           0       -0.940262   -1.605096    0.308097
      8          6           0       -1.859614   -2.648681    0.822455
      9          6           0        0.466093   -1.973254    0.571307
     10          6           0        1.415532   -0.786423    0.481295
     11          6           0        1.582944    0.055588    1.596057
     12          6           0        2.463176    1.148238    1.537799
     13          6           0        3.187012    1.407401    0.364035
     14          6           0        3.030439    0.572693   -0.753023
     15          6           0        2.149274   -0.520339   -0.694245
     16          9           0        2.007825   -1.310339   -1.780876
     17          1           0       -0.518681    1.540983   -1.993906
     18          1           0        0.359087    1.575507   -0.430643
     19          1           0       -0.448664    3.041447   -1.041543
     20          1           0       -1.639308    3.338420    0.870717
     21          1           0       -2.933749    2.213169    1.355485
     22          1           0       -3.100385    3.166377   -0.150547
     23          1           0       -0.684542   -0.534835   -1.497667
     24          1           0       -2.115461   -1.554323   -1.470594
     25          1           0       -2.533523   -2.212744    1.570410
     26          1           0       -1.310840   -3.463973    1.311290
     27          1           0       -2.457022   -3.086280    0.012673
     28          1           0        0.779152   -2.754528   -0.131849
     29          1           0        0.558123   -2.391060    1.582015
     30          1           0        1.026236   -0.134310    2.509594
     31          1           0        2.583244    1.794050    2.402670
     32          1           0        3.866776    2.253410    0.320347
     33          1           0        3.590501    0.775705   -1.661142
 ---------------------------------------------------------------------
 Rotational constants (GHZ):      0.6932722      0.4063898      0.3254087
 Standard basis: 6-31G(d,p) (6D, 7F)
 There are   325 symmetry adapted basis functions of A   symmetry.
 Integral buffers will be    131072 words long.
 Raffenetti 2 integral format.
 Two-electron integral symmetry is turned on.
   325 basis functions,   567 primitive gaussians,   325 cartesian basis functions
    60 alpha electrons       60 beta electrons
       nuclear repulsion energy      1148.5575968976 Hartrees.
 NAtoms=   33 NActive=   33 NUniq=   33 SFac= 1.00D+00 NAtFMM=   60 NAOKFM=F Big=F
 One-electron integrals computed using PRISM.
 NBasis=   325 RedAO= T  NBF=   325
 NBsUse=   325 1.00D-06 NBFU=   325
 Harris functional with IExCor=  402 diagonalized for initial guess.
 ExpMin= 1.61D-01 ExpMax= 7.00D+03 ExpMxC= 1.05D+03 IAcc=1 IRadAn=         1 AccDes= 0.00D+00
 HarFok:  IExCor=  402 AccDes= 0.00D+00 IRadAn=         1 IDoV= 1
 ScaDFX=  1.000000  1.000000  1.000000  1.000000
 FoFCou: FMM=F IPFlag=           0 FMFlag=      100000 FMFlg1=           0
         NFxFlg=           0 DoJE=T BraDBF=F KetDBF=T FulRan=T
         Omega=  0.000000  0.000000  1.000000  0.000000  0.000000 ICntrl=     500 IOpCl=  0
         NMat0=    1 NMatS0=    1 NMatT0=    0 NMatD0=    1 NMtDS0=    0 NMtDT0=    0
         I1Cent=           4 NGrid=           0.
 Petite list used in FoFCou.
 Initial guess orbital symmetries:
       Occupied  (A) (A) (A) (A) (A) (A) (A) (A) (A) (A) (A) (A)
                 (A) (A) (A) (A) (A) (A) (A) (A) (A) (A) (A) (A)
                 (A) (A) (A) (A) (A) (A) (A) (A) (A) (A) (A) (A)
                 (A) (A) (A) (A) (A) (A) (A) (A) (A) (A) (A) (A)
                 (A) (A) (A) (A) (A) (A) (A) (A) (A) (A) (A) (A)
       Virtual   (A) (A) (A) (A) (A) (A) (A) (A) (A) (A) (A) (A)
                 (A) (A) (A) (A) (A) (A) (A) (A) (A) (A) (A) (A)
                 (A) (A) (A) (A) (A) (A) (A) (A) (A) (A) (A) (A)
                 (A) (A) (A) (A) (A) (A) (A) (A) (A) (A) (A) (A)
                 (A) (A) (A) (A) (A) (A) (A) (A) (A) (A) (A) (A)
                 (A) (A) (A) (A) (A) (A) (A) (A) (A) (A) (A) (A)
                 (A) (A) (A) (A) (A) (A) (A) (A) (A) (A) (A) (A)
                 (A) (A) (A) (A) (A) (A) (A) (A) (A) (A) (A) (A)
                 (A) (A) (A) (A) (A) (A) (A) (A) (A) (A) (A) (A)
                 (A) (A) (A) (A) (A) (A) (A) (A) (A) (A) (A) (A)
                 (A) (A) (A) (A) (A) (A) (A) (A) (A) (A) (A) (A)
                 (A) (A) (A) (A) (A) (A) (A) (A) (A) (A) (A) (A)
                 (A) (A) (A) (A) (A) (A) (A) (A) (A) (A) (A) (A)
                 (A) (A) (A) (A) (A) (A) (A) (A) (A) (A) (A) (A)
                 (A) (A) (A) (A) (A) (A) (A) (A) (A) (A) (A) (A)
                 (A) (A) (A) (A) (A) (A) (A) (A) (A) (A) (A) (A)
                 (A) (A) (A) (A) (A) (A) (A) (A) (A) (A) (A) (A)
                 (A) (A) (A) (A) (A) (A) (A) (A) (A) (A) (A) (A)
                 (A) (A) (A) (A) (A) (A) (A) (A) (A) (A) (A) (A)
                 (A) (A) (A) (A) (A) (A) (A) (A) (A) (A) (A) (A)
                 (A) (A) (A) (A) (A) (A) (A) (A) (A) (A) (A) (A)
                 (A) (A) (A) (A) (A) (A) (A) (A) (A) (A) (A) (A)
                 (A)
 The electronic state of the initial guess is 1-A.
 Requested convergence on RMS density matrix=1.00D-08 within 128 cycles.
 Requested convergence on MAX density matrix=1.00D-06.
 Requested convergence on             energy=1.00D-06.
 No special actions if energy rises.
 Keep R1 ints in memory in canonical form, NReq=1421143788.
 Integral accuracy reduced to 1.0D-05 until final iterations.
 Initial convergence to 1.0D-05 achieved.  Increase integral accuracy.
 SCF Done:  E(RB3LYP) =  -752.067084622     A.U. after   15 cycles
             Convg  =    0.4679D-08             -V/T =  2.0097

 **********************************************************************

            Population analysis using the SCF density.

 **********************************************************************

 Orbital symmetries:
       Occupied  (A) (A) (A) (A) (A) (A) (A) (A) (A) (A) (A) (A)
                 (A) (A) (A) (A) (A) (A) (A) (A) (A) (A) (A) (A)
                 (A) (A) (A) (A) (A) (A) (A) (A) (A) (A) (A) (A)
                 (A) (A) (A) (A) (A) (A) (A) (A) (A) (A) (A) (A)
                 (A) (A) (A) (A) (A) (A) (A) (A) (A) (A) (A) (A)
       Virtual   (A) (A) (A) (A) (A) (A) (A) (A) (A) (A) (A) (A)
                 (A) (A) (A) (A) (A) (A) (A) (A) (A) (A) (A) (A)
                 (A) (A) (A) (A) (A) (A) (A) (A) (A) (A) (A) (A)
                 (A) (A) (A) (A) (A) (A) (A) (A) (A) (A) (A) (A)
                 (A) (A) (A) (A) (A) (A) (A) (A) (A) (A) (A) (A)
                 (A) (A) (A) (A) (A) (A) (A) (A) (A) (A) (A) (A)
                 (A) (A) (A) (A) (A) (A) (A) (A) (A) (A) (A) (A)
                 (A) (A) (A) (A) (A) (A) (A) (A) (A) (A) (A) (A)
                 (A) (A) (A) (A) (A) (A) (A) (A) (A) (A) (A) (A)
                 (A) (A) (A) (A) (A) (A) (A) (A) (A) (A) (A) (A)
                 (A) (A) (A) (A) (A) (A) (A) (A) (A) (A) (A) (A)
                 (A) (A) (A) (A) (A) (A) (A) (A) (A) (A) (A) (A)
                 (A) (A) (A) (A) (A) (A) (A) (A) (A) (A) (A) (A)
                 (A) (A) (A) (A) (A) (A) (A) (A) (A) (A) (A) (A)
                 (A) (A) (A) (A) (A) (A) (A) (A) (A) (A) (A) (A)
                 (A) (A) (A) (A) (A) (A) (A) (A) (A) (A) (A) (A)
                 (A) (A) (A) (A) (A) (A) (A) (A) (A) (A) (A) (A)
                 (A) (A) (A) (A) (A) (A) (A) (A) (A) (A) (A) (A)
                 (A) (A) (A) (A) (A) (A) (A) (A) (A) (A) (A) (A)
                 (A) (A) (A) (A) (A) (A) (A) (A) (A) (A) (A) (A)
                 (A) (A) (A) (A) (A) (A) (A) (A) (A) (A) (A) (A)
                 (A) (A) (A) (A) (A) (A) (A) (A) (A) (A) (A) (A)
                 (A)
 The electronic state is 1-A.
 Alpha  occ. eigenvalues --  -24.71671 -19.09808 -14.34930 -14.32244 -10.28197
 Alpha  occ. eigenvalues --  -10.26926 -10.22289 -10.21492 -10.21406 -10.20993
 Alpha  occ. eigenvalues --  -10.20965 -10.20797 -10.20624 -10.20547 -10.20162
 Alpha  occ. eigenvalues --  -10.19493  -1.22613  -1.01662  -0.90988  -0.90298
 Alpha  occ. eigenvalues --   -0.86189  -0.77683  -0.75238  -0.73143  -0.70707
 Alpha  occ. eigenvalues --   -0.69167  -0.67024  -0.62473  -0.61694  -0.58813
 Alpha  occ. eigenvalues --   -0.54287  -0.52882  -0.50228  -0.49365  -0.48610
 Alpha  occ. eigenvalues --   -0.47482  -0.46590  -0.45989  -0.45232  -0.44579
 Alpha  occ. eigenvalues --   -0.44073  -0.43191  -0.41571  -0.40568  -0.40279
 Alpha  occ. eigenvalues --   -0.39725  -0.39057  -0.38647  -0.37541  -0.36948
 Alpha  occ. eigenvalues --   -0.36592  -0.35806  -0.35204  -0.34399  -0.33554
 Alpha  occ. eigenvalues --   -0.26192  -0.25001  -0.24145  -0.22096  -0.18997
 Alpha virt. eigenvalues --   -0.02110  -0.00815   0.02769   0.08059   0.09193
 Alpha virt. eigenvalues --    0.10242   0.11893   0.12967   0.13307   0.13939
 Alpha virt. eigenvalues --    0.14286   0.14744   0.15076   0.15553   0.15744
 Alpha virt. eigenvalues --    0.16120   0.17013   0.17391   0.17524   0.19055
 Alpha virt. eigenvalues --    0.19286   0.20068   0.20403   0.21460   0.22702
 Alpha virt. eigenvalues --    0.24515   0.27075   0.27518   0.29077   0.30047
 Alpha virt. eigenvalues --    0.31363   0.33469   0.33821   0.34319   0.39516
 Alpha virt. eigenvalues --    0.47023   0.48322   0.49087   0.49387   0.50124
 Alpha virt. eigenvalues --    0.51722   0.52310   0.52734   0.54043   0.54861
 Alpha virt. eigenvalues --    0.56209   0.56820   0.57255   0.58450   0.59167
 Alpha virt. eigenvalues --    0.59370   0.59776   0.60760   0.61508   0.62756
 Alpha virt. eigenvalues --    0.63337   0.65216   0.65815   0.66185   0.68028
 Alpha virt. eigenvalues --    0.70530   0.71713   0.72766   0.74418   0.75108
 Alpha virt. eigenvalues --    0.76527   0.79131   0.79950   0.80213   0.80911
 Alpha virt. eigenvalues --    0.81807   0.82520   0.83175   0.83789   0.83828
 Alpha virt. eigenvalues --    0.84667   0.85937   0.86551   0.87842   0.88452
 Alpha virt. eigenvalues --    0.88859   0.89426   0.90344   0.91286   0.91752
 Alpha virt. eigenvalues --    0.93022   0.93509   0.94791   0.96573   0.96965
 Alpha virt. eigenvalues --    0.98327   1.00716   1.01936   1.04341   1.05952
 Alpha virt. eigenvalues --    1.07688   1.08908   1.11014   1.14026   1.14205
 Alpha virt. eigenvalues --    1.15864   1.19196   1.19695   1.21154   1.23600
 Alpha virt. eigenvalues --    1.25661   1.26276   1.27351   1.30618   1.32491
 Alpha virt. eigenvalues --    1.33947   1.37450   1.37554   1.39397   1.39628
 Alpha virt. eigenvalues --    1.39871   1.42576   1.43478   1.44959   1.45433
 Alpha virt. eigenvalues --    1.46906   1.50312   1.52217   1.53939   1.60650
 Alpha virt. eigenvalues --    1.61421   1.65559   1.69624   1.70910   1.72245
 Alpha virt. eigenvalues --    1.74060   1.74991   1.77187   1.79109   1.79699
 Alpha virt. eigenvalues --    1.80903   1.81912   1.83184   1.84673   1.86492
 Alpha virt. eigenvalues --    1.87298   1.88000   1.88881   1.89353   1.90172
 Alpha virt. eigenvalues --    1.90494   1.91032   1.92811   1.93274   1.94736
 Alpha virt. eigenvalues --    1.94944   1.96440   1.97763   1.98160   1.99175
 Alpha virt. eigenvalues --    2.01747   2.02830   2.03222   2.03476   2.04279
 Alpha virt. eigenvalues --    2.05301   2.05695   2.07238   2.08881   2.09757
 Alpha virt. eigenvalues --    2.10162   2.12200   2.13171   2.15032   2.17909
 Alpha virt. eigenvalues --    2.18355   2.20801   2.21555   2.24310   2.26589
 Alpha virt. eigenvalues --    2.27592   2.28785   2.29780   2.30456   2.33358
 Alpha virt. eigenvalues --    2.33829   2.35147   2.35799   2.37306   2.37789
 Alpha virt. eigenvalues --    2.39171   2.39476   2.43313   2.43624   2.45521
 Alpha virt. eigenvalues --    2.46785   2.48563   2.49115   2.50361   2.52640
 Alpha virt. eigenvalues --    2.53602   2.54594   2.55554   2.57319   2.57753
 Alpha virt. eigenvalues --    2.58195   2.61091   2.62555   2.63470   2.63794
 Alpha virt. eigenvalues --    2.66414   2.67887   2.68384   2.69132   2.71370
 Alpha virt. eigenvalues --    2.71999   2.74519   2.75418   2.78848   2.80141
 Alpha virt. eigenvalues --    2.82304   2.85624   2.85696   2.86832   2.88166
 Alpha virt. eigenvalues --    2.90914   2.91072   2.94714   2.97904   3.00079
 Alpha virt. eigenvalues --    3.03518   3.06287   3.09526   3.10560   3.12466
 Alpha virt. eigenvalues --    3.16845   3.18412   3.20878   3.22883   3.24797
 Alpha virt. eigenvalues --    3.28021   3.32381   3.34881   3.35437   3.42296
 Alpha virt. eigenvalues --    3.42809   3.44049   3.44442   3.44791   3.45766
 Alpha virt. eigenvalues --    3.46558   3.48215   3.52639   3.82277   3.99296
 Alpha virt. eigenvalues --    4.01023   4.13119   4.16120   4.17420   4.23580
 Alpha virt. eigenvalues --    4.34527   4.40136   4.42923   4.49019   4.50333
 Alpha virt. eigenvalues --    4.53998   4.60734   4.69762   4.77742   5.56999
          Condensed to atoms (all electrons):
              1          2          3          4          5          6
     1  C    4.834118   0.269610  -0.048002  -0.017365   0.002706  -0.002203
     2  N    0.269610   7.065147   0.280201   0.264302  -0.100115  -0.103864
     3  C   -0.048002   0.280201   4.784479  -0.022077   0.006959   0.005991
     4  C   -0.017365   0.264302  -0.022077   4.421960   0.579507   0.334706
     5  O    0.002706  -0.100115   0.006959   0.579507   8.078961  -0.080368
     6  C   -0.002203  -0.103864   0.005991   0.334706  -0.080368   5.018228
     7  N   -0.000205   0.001080  -0.000273  -0.052593  -0.003504   0.322696
     8  C   -0.000002   0.000078  -0.000009  -0.001815   0.003415  -0.050968
     9  C   -0.000083  -0.000236   0.000008   0.002880  -0.000014  -0.032062
    10  C   -0.001429   0.000124  -0.000012  -0.000015   0.000000   0.001075
    11  C   -0.001656   0.000373  -0.000014  -0.000071  -0.000001  -0.000365
    12  C   -0.000754  -0.000065   0.000007   0.000007   0.000000  -0.000026
    13  C   -0.000481   0.000036   0.000000   0.000001   0.000000   0.000002
    14  C   -0.000414   0.000058   0.000000  -0.000006   0.000000  -0.000013
    15  C   -0.000308   0.000018   0.000002   0.000162   0.000000   0.001069
    16  F   -0.000060   0.000000   0.000000   0.000020   0.000000  -0.001070
    17  H    0.385722  -0.039699   0.003780  -0.003334   0.000182  -0.001059
    18  H    0.384242  -0.048136   0.001736  -0.001950  -0.000074  -0.000615
    19  H    0.383411  -0.029623  -0.006202   0.001129  -0.000072   0.000164
    20  H   -0.004886  -0.037372   0.381010   0.004315   0.000495  -0.000094
    21  H    0.004376  -0.036236   0.388466  -0.002901   0.007817   0.000237
    22  H    0.000803  -0.046989   0.388884  -0.002896   0.001371  -0.000157
    23  H    0.001735   0.000581  -0.000184  -0.030168   0.003701   0.333482
    24  H   -0.000230   0.004611  -0.000177  -0.043804   0.002851   0.351919
    25  H    0.000000   0.000001   0.000008   0.001585   0.002021   0.004039
    26  H    0.000000   0.000004   0.000000   0.000057   0.000066   0.003149
    27  H   -0.000001   0.000008  -0.000001  -0.001678   0.000204  -0.011906
    28  H   -0.000010   0.000007   0.000000  -0.000317  -0.000001  -0.004449
    29  H    0.000000   0.000001   0.000000  -0.000040   0.000002   0.004680
    30  H   -0.000012   0.000022   0.000000  -0.000005   0.000000   0.000007
    31  H   -0.000002  -0.000001   0.000000   0.000000   0.000000   0.000000
    32  H   -0.000004   0.000000   0.000000   0.000000   0.000000   0.000000
    33  H    0.000005   0.000000   0.000000   0.000000   0.000000   0.000000
              7          8          9         10         11         12
     1  C   -0.000205  -0.000002  -0.000083  -0.001429  -0.001656  -0.000754
     2  N    0.001080   0.000078  -0.000236   0.000124   0.000373  -0.000065
     3  C   -0.000273  -0.000009   0.000008  -0.000012  -0.000014   0.000007
     4  C   -0.052593  -0.001815   0.002880  -0.000015  -0.000071   0.000007
     5  O   -0.003504   0.003415  -0.000014   0.000000  -0.000001   0.000000
     6  C    0.322696  -0.050968  -0.032062   0.001075  -0.000365  -0.000026
     7  N    6.884375   0.312502   0.319052  -0.062538   0.006495  -0.000021
     8  C    0.312502   4.811050  -0.048578   0.004877   0.000113   0.000005
     9  C    0.319052  -0.048578   4.870450   0.335139  -0.052180   0.006000
    10  C   -0.062538   0.004877   0.335139   5.037132   0.496421  -0.025585
    11  C    0.006495   0.000113  -0.052180   0.496421   4.891127   0.514461
    12  C   -0.000021   0.000005   0.006000  -0.025585   0.514461   4.845369
    13  C    0.000025   0.000000  -0.000152  -0.030733  -0.035203   0.534748
    14  C   -0.000100   0.000004   0.007711  -0.068939  -0.044866  -0.029474
    15  C   -0.003309  -0.000063  -0.043812   0.436943  -0.018095  -0.044202
    16  F   -0.000318  -0.000006   0.000180  -0.056822   0.002633  -0.000091
    17  H   -0.000054  -0.000003  -0.000002  -0.000043   0.000059   0.000043
    18  H    0.000728   0.000003  -0.000207   0.001657   0.001375   0.002640
    19  H   -0.000007   0.000000  -0.000002   0.000102   0.000046  -0.000072
    20  H    0.000011   0.000000   0.000000  -0.000003   0.000011   0.000025
    21  H   -0.000005   0.000000   0.000003   0.000001  -0.000003  -0.000001
    22  H   -0.000004   0.000000   0.000000   0.000000   0.000001   0.000000
    23  H   -0.030619   0.005558  -0.006588  -0.000648   0.000399   0.000017
    24  H   -0.039277  -0.011388   0.000623  -0.000104   0.000042   0.000000
    25  H   -0.051434   0.393125   0.003754  -0.000052  -0.000066  -0.000001
    26  H   -0.034314   0.375528  -0.007722   0.000359   0.000050   0.000000
    27  H   -0.041929   0.374453   0.000551  -0.000254   0.000010   0.000000
    28  H   -0.057969  -0.000919   0.357254  -0.040163   0.006632  -0.000172
    29  H   -0.039621  -0.009484   0.372860  -0.021928  -0.010304   0.000005
    30  H    0.001781  -0.000090  -0.008785  -0.041318   0.373771  -0.041330
    31  H    0.000001   0.000000  -0.000152   0.003952  -0.036679   0.367642
    32  H    0.000000   0.000000   0.000005   0.000359   0.004646  -0.039049
    33  H    0.000001   0.000000  -0.000148   0.006057   0.000409   0.004638
             13         14         15         16         17         18
     1  C   -0.000481  -0.000414  -0.000308  -0.000060   0.385722   0.384242
     2  N    0.000036   0.000058   0.000018   0.000000  -0.039699  -0.048136
     3  C    0.000000   0.000000   0.000002   0.000000   0.003780   0.001736
     4  C    0.000001  -0.000006   0.000162   0.000020  -0.003334  -0.001950
     5  O    0.000000   0.000000   0.000000   0.000000   0.000182  -0.000074
     6  C    0.000002  -0.000013   0.001069  -0.001070  -0.001059  -0.000615
     7  N    0.000025  -0.000100  -0.003309  -0.000318  -0.000054   0.000728
     8  C    0.000000   0.000004  -0.000063  -0.000006  -0.000003   0.000003
     9  C   -0.000152   0.007711  -0.043812   0.000180  -0.000002  -0.000207
    10  C   -0.030733  -0.068939   0.436943  -0.056822  -0.000043   0.001657
    11  C   -0.035203  -0.044866  -0.018095   0.002633   0.000059   0.001375
    12  C    0.534748  -0.029474  -0.044202  -0.000091   0.000043   0.002640
    13  C    4.839675   0.490123  -0.014567   0.002806   0.000066   0.001109
    14  C    0.490123   5.046100   0.463309  -0.046331   0.000048   0.001065
    15  C   -0.014567   0.463309   4.636845   0.300603  -0.000204  -0.000386
    16  F    0.002806  -0.046331   0.300603   9.079275  -0.000006  -0.000176
    17  H    0.000066   0.000048  -0.000204  -0.000006   0.599914  -0.039457
    18  H    0.001109   0.001065  -0.000386  -0.000176  -0.039457   0.586832
    19  H   -0.000033   0.000098   0.000076  -0.000001  -0.025835  -0.034310
    20  H    0.000000  -0.000001  -0.000001   0.000000  -0.000021   0.001888
    21  H    0.000000   0.000000   0.000000   0.000000  -0.000250   0.000011
    22  H    0.000000   0.000000   0.000000   0.000000   0.000295  -0.000500
    23  H   -0.000034  -0.000177  -0.000376   0.005488   0.000727  -0.000144
    24  H    0.000000   0.000000  -0.000137   0.000007   0.000265  -0.000028
    25  H    0.000000   0.000000   0.000010   0.000000   0.000000  -0.000001
    26  H    0.000000   0.000000  -0.000030   0.000000   0.000000   0.000001
    27  H    0.000000   0.000000  -0.000011   0.000000   0.000000   0.000001
    28  H   -0.000039   0.000229  -0.011808   0.006072  -0.000002   0.000040
    29  H    0.000020  -0.000228   0.005356   0.000199  -0.000001   0.000000
    30  H    0.004858   0.000088   0.004021  -0.000017   0.000000   0.000032
    31  H   -0.040612   0.004526   0.000827   0.000001   0.000000   0.000022
    32  H    0.371575  -0.037322   0.003633  -0.000020   0.000000   0.000007
    33  H   -0.039507   0.356906  -0.032346  -0.000517   0.000006   0.000031
             19         20         21         22         23         24
     1  C    0.383411  -0.004886   0.004376   0.000803   0.001735  -0.000230
     2  N   -0.029623  -0.037372  -0.036236  -0.046989   0.000581   0.004611
     3  C   -0.006202   0.381010   0.388466   0.388884  -0.000184  -0.000177
     4  C    0.001129   0.004315  -0.002901  -0.002896  -0.030168  -0.043804
     5  O   -0.000072   0.000495   0.007817   0.001371   0.003701   0.002851
     6  C    0.000164  -0.000094   0.000237  -0.000157   0.333482   0.351919
     7  N   -0.000007   0.000011  -0.000005  -0.000004  -0.030619  -0.039277
     8  C    0.000000   0.000000   0.000000   0.000000   0.005558  -0.011388
     9  C   -0.000002   0.000000   0.000003   0.000000  -0.006588   0.000623
    10  C    0.000102  -0.000003   0.000001   0.000000  -0.000648  -0.000104
    11  C    0.000046   0.000011  -0.000003   0.000001   0.000399   0.000042
    12  C   -0.000072   0.000025  -0.000001   0.000000   0.000017   0.000000
    13  C   -0.000033   0.000000   0.000000   0.000000  -0.000034   0.000000
    14  C    0.000098  -0.000001   0.000000   0.000000  -0.000177   0.000000
    15  C    0.000076  -0.000001   0.000000   0.000000  -0.000376  -0.000137
    16  F   -0.000001   0.000000   0.000000   0.000000   0.005488   0.000007
    17  H   -0.025835  -0.000021  -0.000250   0.000295   0.000727   0.000265
    18  H   -0.034310   0.001888   0.000011  -0.000500  -0.000144  -0.000028
    19  H    0.596967  -0.000812   0.000033   0.002585   0.000175   0.000003
    20  H   -0.000812   0.618153  -0.025733  -0.041878  -0.000015   0.000001
    21  H    0.000033  -0.025733   0.560945  -0.034395  -0.000015  -0.000019
    22  H    0.002585  -0.041878  -0.034395   0.612510  -0.000007   0.000017
    23  H    0.000175  -0.000015  -0.000015  -0.000007   0.646489  -0.026270
    24  H    0.000003   0.000001  -0.000019   0.000017  -0.026270   0.635887
    25  H    0.000000   0.000000   0.000016   0.000000  -0.000250  -0.001824
    26  H    0.000000   0.000000   0.000000   0.000000  -0.000177   0.000894
    27  H    0.000000   0.000000   0.000000   0.000000   0.000678   0.015233
    28  H    0.000000   0.000000   0.000000   0.000000   0.002013   0.002084
    29  H    0.000000   0.000000   0.000000   0.000000  -0.000041  -0.000272
    30  H    0.000001   0.000001   0.000001   0.000000  -0.000008   0.000003
    31  H    0.000000   0.000002   0.000000   0.000000   0.000000   0.000000
    32  H    0.000001   0.000000   0.000000   0.000000   0.000000   0.000000
    33  H    0.000001   0.000000   0.000000   0.000000  -0.000001   0.000000
             25         26         27         28         29         30
     1  C    0.000000   0.000000  -0.000001  -0.000010   0.000000  -0.000012
     2  N    0.000001   0.000004   0.000008   0.000007   0.000001   0.000022
     3  C    0.000008   0.000000  -0.000001   0.000000   0.000000   0.000000
     4  C    0.001585   0.000057  -0.001678  -0.000317  -0.000040  -0.000005
     5  O    0.002021   0.000066   0.000204  -0.000001   0.000002   0.000000
     6  C    0.004039   0.003149  -0.011906  -0.004449   0.004680   0.000007
     7  N   -0.051434  -0.034314  -0.041929  -0.057969  -0.039621   0.001781
     8  C    0.393125   0.375528   0.374453  -0.000919  -0.009484  -0.000090
     9  C    0.003754  -0.007722   0.000551   0.357254   0.372860  -0.008785
    10  C   -0.000052   0.000359  -0.000254  -0.040163  -0.021928  -0.041318
    11  C   -0.000066   0.000050   0.000010   0.006632  -0.010304   0.373771
    12  C   -0.000001   0.000000   0.000000  -0.000172   0.000005  -0.041330
    13  C    0.000000   0.000000   0.000000  -0.000039   0.000020   0.004858
    14  C    0.000000   0.000000   0.000000   0.000229  -0.000228   0.000088
    15  C    0.000010  -0.000030  -0.000011  -0.011808   0.005356   0.004021
    16  F    0.000000   0.000000   0.000000   0.006072   0.000199  -0.000017
    17  H    0.000000   0.000000   0.000000  -0.000002  -0.000001   0.000000
    18  H   -0.000001   0.000001   0.000001   0.000040   0.000000   0.000032
    19  H    0.000000   0.000000   0.000000   0.000000   0.000000   0.000001
    20  H    0.000000   0.000000   0.000000   0.000000   0.000000   0.000001
    21  H    0.000016   0.000000   0.000000   0.000000   0.000000   0.000001
    22  H    0.000000   0.000000   0.000000   0.000000   0.000000   0.000000
    23  H   -0.000250  -0.000177   0.000678   0.002013  -0.000041  -0.000008
    24  H   -0.001824   0.000894   0.015233   0.002084  -0.000272   0.000003
    25  H    0.605315  -0.039498  -0.042978  -0.000784   0.002121  -0.000006
    26  H   -0.039498   0.630623  -0.025486   0.004543  -0.001177   0.000008
    27  H   -0.042978  -0.025486   0.631032   0.002220  -0.000490   0.000004
    28  H   -0.000784   0.004543   0.002220   0.694698  -0.054095   0.000223
    29  H    0.002121  -0.001177  -0.000490  -0.054095   0.635777   0.003345
    30  H   -0.000006   0.000008   0.000004   0.000223   0.003345   0.607986
    31  H    0.000000   0.000000   0.000000   0.000003  -0.000007  -0.005402
    32  H    0.000000   0.000000   0.000000   0.000000   0.000000  -0.000186
    33  H    0.000000   0.000000   0.000000   0.000004   0.000002   0.000013
             31         32         33
     1  C   -0.000002  -0.000004   0.000005
     2  N   -0.000001   0.000000   0.000000
     3  C    0.000000   0.000000   0.000000
     4  C    0.000000   0.000000   0.000000
     5  O    0.000000   0.000000   0.000000
     6  C    0.000000   0.000000   0.000000
     7  N    0.000001   0.000000   0.000001
     8  C    0.000000   0.000000   0.000000
     9  C   -0.000152   0.000005  -0.000148
    10  C    0.003952   0.000359   0.006057
    11  C   -0.036679   0.004646   0.000409
    12  C    0.367642  -0.039049   0.004638
    13  C   -0.040612   0.371575  -0.039507
    14  C    0.004526  -0.037322   0.356906
    15  C    0.000827   0.003633  -0.032346
    16  F    0.000001  -0.000020  -0.000517
    17  H    0.000000   0.000000   0.000006
    18  H    0.000022   0.000007   0.000031
    19  H    0.000000   0.000001   0.000001
    20  H    0.000002   0.000000   0.000000
    21  H    0.000000   0.000000   0.000000
    22  H    0.000000   0.000000   0.000000
    23  H    0.000000   0.000000  -0.000001
    24  H    0.000000   0.000000   0.000000
    25  H    0.000000   0.000000   0.000000
    26  H    0.000000   0.000000   0.000000
    27  H    0.000000   0.000000   0.000000
    28  H    0.000003   0.000000   0.000004
    29  H   -0.000007   0.000000   0.000002
    30  H   -0.005402  -0.000186   0.000013
    31  H    0.620119  -0.005544  -0.000168
    32  H   -0.005544   0.611489  -0.006452
    33  H   -0.000168  -0.006452   0.609159
 Mulliken atomic charges:
              1
     1  C   -0.188620
     2  N   -0.443925
     3  C   -0.164577
     4  C    0.570405
     5  O   -0.506106
     6  C   -0.092223
     7  N   -0.430651
     8  C   -0.157388
     9  C   -0.075745
    10  C    0.026386
    11  C   -0.099572
    12  C   -0.094766
    13  C   -0.083683
    14  C   -0.142395
    15  C    0.316779
    16  F   -0.291850
    17  H    0.118862
    18  H    0.142563
    19  H    0.112177
    20  H    0.104905
    21  H    0.137653
    22  H    0.120361
    23  H    0.094680
    24  H    0.109093
    25  H    0.124900
    26  H    0.093123
    27  H    0.100342
    28  H    0.094708
    29  H    0.113320
    30  H    0.100995
    31  H    0.091475
    32  H    0.096862
    33  H    0.101910
 Sum of Mulliken atomic charges =   0.00000
 Mulliken charges with hydrogens summed into heavy atoms:
              1
     1  C    0.184983
     2  N   -0.443925
     3  C    0.198341
     4  C    0.570405
     5  O   -0.506106
     6  C    0.111550
     7  N   -0.430651
     8  C    0.160977
     9  C    0.132284
    10  C    0.026386
    11  C    0.001423
    12  C   -0.003291
    13  C    0.013179
    14  C   -0.040485
    15  C    0.316779
    16  F   -0.291850
 Sum of Mulliken charges with hydrogens summed into heavy atoms =   0.00000
 Electronic spatial extent (au):  <R**2>=           3702.3950
 Charge=              0.0000 electrons
 Dipole moment (field-independent basis, Debye):
    X=              3.6360    Y=              1.6283    Z=              0.4990  Tot=              4.0151
 Quadrupole moment (field-independent basis, Debye-Ang):
   XX=           -108.5284   YY=            -85.0918   ZZ=            -90.2770
   XY=              3.2669   XZ=              0.7201   YZ=             -1.4865
 Traceless Quadrupole moment (field-independent basis, Debye-Ang):
   XX=            -13.8960   YY=              9.5406   ZZ=              4.3554
   XY=              3.2669   XZ=              0.7201   YZ=             -1.4865
 Octapole moment (field-independent basis, Debye-Ang**2):
  XXX=             69.6018  YYY=              1.1859  ZZZ=             -6.0766  XYY=             -9.2020
  XXY=             15.9588  XXZ=             -7.6457  XZZ=             -3.7480  YZZ=              2.0085
  YYZ=              3.3878  XYZ=             -2.5856
 Hexadecapole moment (field-independent basis, Debye-Ang**3):
 XXXX=          -2928.1942 YYYY=          -1457.0115 ZZZZ=           -597.8759 XXXY=             31.9937
 XXXZ=            -69.1138 YYYX=            -23.0986 YYYZ=              8.7893 ZZZX=            -20.1844
 ZZZY=             15.7179 XXYY=           -646.1073 XXZZ=           -531.1569 YYZZ=           -346.7938
 XXYZ=             11.7359 YYXZ=             -2.5502 ZZXY=              6.7901
 N-N= 1.148557596898D+03 E-N=-4.049444316698D+03  KE= 7.448204472027D+02
 1\1\GINC-C02\SP\RB3LYP\6-31G(d,p)\C12H17F1N2O1\TUU61186\08-Jun-2026\0\
 \# b3lyp/6-31g(d,p)\\Generated by mdgx\\0,1\C,0,12.5929946,16.7189592,
 16.7494098\N,0,12.6564067,17.7403018,15.6872468\C,0,11.3479626,18.2608
 967,15.2501042\C,0,13.8457927,18.3141207,15.2251472\O,0,13.8592015,19.
 3761164,14.6257778\C,0,15.147212,17.5045278,15.3799431\N,0,15.4038232,
 16.6662289,14.1901576\C,0,16.1517009,17.3937993,13.136515\C,0,15.69622
 42,15.2192222,14.1324795\C,0,14.6595788,14.3762184,14.8624202\C,0,13.4
 715141,14.011177,14.2029128\C,0,12.508249,13.2236654,14.8540881\C,0,12
 .7257803,12.7910724,16.1710429\C,0,13.9082799,13.1464435,16.8377346\C,
 0,14.8716769,13.9347301,16.1857404\F,0,16.0019307,14.2709903,16.844776
 7\H,0,13.3469957,16.9273863,17.5182222\H,0,12.7672256,15.7294527,16.31
 64404\H,0,11.6041535,16.727354,17.2253401\H,0,10.5815006,17.4807096,15
 .3414085\H,0,11.4034111,18.575878,14.2004277\H,0,11.0689391,19.1200558
 ,15.8727023\H,0,15.0857227,16.8712563,16.2706408\H,0,15.9738698,18.205
 8174,15.5510861\H,0,15.4476738,17.9079224,12.470441\H,0,16.7468561,16.
 7089799,12.5187556\H,0,16.8369436,18.1314604,13.5729023\H,0,16.6921414
 ,15.0286743,14.5504067\H,0,15.7139547,14.8848744,13.0872713\H,0,13.291
 4708,14.3419992,13.1837577\H,0,11.5930911,12.9496262,14.3374826\H,0,11
 .979365,12.1827401,16.6735507\H,0,14.0742574,12.8118429,17.8575671\\Ve
 rsion=EM64L-G09RevC.01\State=1-A\HF=-752.0670846\RMSD=4.679e-09\Dipole
 =-0.6188567,-1.4032012,0.3786537\Quadrupole=5.6220965,-9.615047,3.9929
 505,2.4467705,-2.7305543,2.7807141\PG=C01 [X(C12H17F1N2O1)]\\@


 The cat could very well be man's best friend
 but would never stoop to admitting it.
                               -- Doug Larson
 Job cpu time:  0 days  0 hours  3 minutes 35.3 seconds.
 File lengths (MBytes):  RWF=     47 Int=      0 D2E=      0 Chk=      5 Scr=      1
 Normal termination of Gaussian 09 at Mon Jun  8 05:50:20 2026.
