 Entering Gaussian System, Link 0=/data/opt/apps/g09-C01/g09
 Initial command:
 /data/opt/apps/g09-C01/l1.exe /tmp/g09-tuu61186-120609e956b4d176x/Gau-120745.inp -scrdir=/tmp/g09-tuu61186-120609e956b4d176x/
 Entering Link 1 = /data/opt/apps/g09-C01/l1.exe PID=    120757.
  
 Copyright (c) 1988,1990,1992,1993,1995,1998,2003,2009,2011,
            Gaussian, Inc.  All Rights Reserved.
  
 This is part of the Gaussian(R) 09 program.  It is based on
 the Gaussian(R) 03 system (copyright 2003, Gaussian, Inc.),
 the Gaussian(R) 98 system (copyright 1998, Gaussian, Inc.),
 the Gaussian(R) 94 system (copyright 1995, Gaussian, Inc.),
 the Gaussian 92(TM) system (copyright 1992, Gaussian, Inc.),
 the Gaussian 90(TM) system (copyright 1990, Gaussian, Inc.),
 the Gaussian 88(TM) system (copyright 1988, Gaussian, Inc.),
 the Gaussian 86(TM) system (copyright 1986, Carnegie Mellon
 University), and the Gaussian 82(TM) system (copyright 1983,
 Carnegie Mellon University). Gaussian is a federally registered
 trademark of Gaussian, Inc.
  
 This software contains proprietary and confidential information,
 including trade secrets, belonging to Gaussian, Inc.
  
 This software is provided under written license and may be
 used, copied, transmitted, or stored only in accord with that
 written license.
  
 The following legend is applicable only to US Government
 contracts under FAR:
  
                    RESTRICTED RIGHTS LEGEND
  
 Use, reproduction and disclosure by the US Government is
 subject to restrictions as set forth in subparagraphs (a)
 and (c) of the Commercial Computer Software - Restricted
 Rights clause in FAR 52.227-19.
  
 Gaussian, Inc.
 340 Quinnipiac St., Bldg. 40, Wallingford CT 06492
  
  
 ---------------------------------------------------------------
 Warning -- This program may not be used in any manner that
 competes with the business of Gaussian, Inc. or will provide
 assistance to any competitor of Gaussian, Inc.  The licensee
 of this program is prohibited from giving any competitor of
 Gaussian, Inc. access to this program.  By using this program,
 the user acknowledges that Gaussian, Inc. is engaged in the
 business of creating and licensing software in the field of
 computational chemistry and represents and warrants to the
 licensee that it is not a competitor of Gaussian, Inc. and that
 it will not use this program in any manner prohibited above.
 ---------------------------------------------------------------
  

 Cite this work as:
 Gaussian 09, Revision C.01,
 M. J. Frisch, G. W. Trucks, H. B. Schlegel, G. E. Scuseria, 
 M. A. Robb, J. R. Cheeseman, G. Scalmani, V. Barone, B. Mennucci, 
 G. A. Petersson, H. Nakatsuji, M. Caricato, X. Li, H. P. Hratchian, 
 A. F. Izmaylov, J. Bloino, G. Zheng, J. L. Sonnenberg, M. Hada, 
 M. Ehara, K. Toyota, R. Fukuda, J. Hasegawa, M. Ishida, T. Nakajima, 
 Y. Honda, O. Kitao, H. Nakai, T. Vreven, J. A. Montgomery, Jr., 
 J. E. Peralta, F. Ogliaro, M. Bearpark, J. J. Heyd, E. Brothers, 
 K. N. Kudin, V. N. Staroverov, T. Keith, R. Kobayashi, J. Normand, 
 K. Raghavachari, A. Rendell, J. C. Burant, S. S. Iyengar, J. Tomasi, 
 M. Cossi, N. Rega, J. M. Millam, M. Klene, J. E. Knox, J. B. Cross, 
 V. Bakken, C. Adamo, J. Jaramillo, R. Gomperts, R. E. Stratmann, 
 O. Yazyev, A. J. Austin, R. Cammi, C. Pomelli, J. W. Ochterski, 
 R. L. Martin, K. Morokuma, V. G. Zakrzewski, G. A. Voth, 
 P. Salvador, J. J. Dannenberg, S. Dapprich, A. D. Daniels, 
 O. Farkas, J. B. Foresman, J. V. Ortiz, J. Cioslowski, 
 and D. J. Fox, Gaussian, Inc., Wallingford CT, 2010.
 
 ******************************************
 Gaussian 09:  EM64L-G09RevC.01 23-Sep-2011
                 8-Jun-2026 
 ******************************************
 %nprocshared=8
 Will use up to    8 processors via shared memory.
 %mem=14GB
 ------------------
 # b3lyp/6-31g(d,p)
 ------------------
 1/38=1/1;
 2/12=2,17=6,18=5,40=1/2;
 3/5=1,6=6,7=101,11=2,16=1,25=1,30=1,74=-5/1,2,3;
 4//1;
 5/5=2,38=5/2;
 6/7=2,8=2,9=2,10=2,28=1/1;
 99/5=1,9=1/99;
 -----------------
 Generated by mdgx
 -----------------
 Charge =  0 Multiplicity = 1
 Symbolic Z-Matrix:
 C                     10.96671   19.27023   15.21968 
 N                     12.02985   18.29417   15.52222 
 C                     13.05269   18.76429   16.47749 
 C                     11.94133   16.97333   15.06905 
 O                     10.91743   16.52357   14.58289 
 C                     13.22963   16.12983   15.07194 
 N                     13.94583   16.23196   13.76824 
 C                     14.83939   17.41373   13.81139 
 C                     14.69069   14.976    13.43356 
 C                     15.04123   14.04569   14.60129 
 C                     14.30409   12.86303   14.80452 
 C                     14.62081   11.99727   15.86367 
 C                     15.68397   12.30046   16.72693 
 C                     16.43458   13.46859   16.52725 
 C                     16.11751   14.33434   15.46703 
 F                     16.86131   15.44618   15.28285 
 H                     10.1511   19.16     15.94517 
 H                     10.57827   19.09706   14.20811 
 H                     11.36516   20.29143   15.27222 
 H                     12.69644   19.65904   17.00379 
 H                     13.97571   19.01361   15.94174 
 H                     13.2556   17.98543   17.22276 
 H                     12.87288   15.1045   15.22921 
 H                     13.87896   16.37795   15.91961 
 H                     14.28739   18.30878   13.49857 
 H                     15.65916   17.30358   13.09066 
 H                     15.28079   17.56193   14.80476 
 H                     15.60621   15.20515   12.87464 
 H                     14.06473   14.39657   12.74395 
 H                     13.47583   12.61735   14.14559 
 H                     14.04119   11.09131   16.0148 
 H                     15.92779   11.62973   17.54574 
 H                     17.26165   13.69841   17.19257 
 
                          Input orientation:                          
 ---------------------------------------------------------------------
 Center     Atomic      Atomic             Coordinates (Angstroms)
 Number     Number       Type             X           Y           Z
 ---------------------------------------------------------------------
      1          6           0       10.966712   19.270226   15.219677
      2          7           0       12.029852   18.294171   15.522224
      3          6           0       13.052685   18.764285   16.477495
      4          6           0       11.941327   16.973330   15.069050
      5          8           0       10.917431   16.523567   14.582886
      6          6           0       13.229634   16.129835   15.071937
      7          7           0       13.945835   16.231961   13.768237
      8          6           0       14.839391   17.413732   13.811394
      9          6           0       14.690690   14.976001   13.433561
     10          6           0       15.041232   14.045686   14.601289
     11          6           0       14.304090   12.863033   14.804515
     12          6           0       14.620812   11.997266   15.863670
     13          6           0       15.683971   12.300465   16.726935
     14          6           0       16.434577   13.468591   16.527248
     15          6           0       16.117507   14.334336   15.467028
     16          9           0       16.861313   15.446180   15.282850
     17          1           0       10.151102   19.160004   15.945175
     18          1           0       10.578273   19.097057   14.208114
     19          1           0       11.365162   20.291429   15.272222
     20          1           0       12.696436   19.659037   17.003789
     21          1           0       13.975711   19.013613   15.941743
     22          1           0       13.255599   17.985432   17.222762
     23          1           0       12.872882   15.104502   15.229214
     24          1           0       13.878958   16.377952   15.919613
     25          1           0       14.287388   18.308775   13.498572
     26          1           0       15.659156   17.303579   13.090664
     27          1           0       15.280786   17.561927   14.804763
     28          1           0       15.606207   15.205146   12.874636
     29          1           0       14.064727   14.396574   12.743946
     30          1           0       13.475827   12.617352   14.145585
     31          1           0       14.041187   11.091314   16.014801
     32          1           0       15.927790   11.629732   17.545738
     33          1           0       17.261653   13.698414   17.192570
 ---------------------------------------------------------------------
                    Distance matrix (angstroms):
                    1          2          3          4          5
     1  C    0.000000
     2  N    1.474613   0.000000
     3  C    2.487844   1.476394   0.000000
     4  C    2.499658   1.399223   2.535026   0.000000
     5  O    2.819941   2.292352   3.629004   1.219428   0.000000
     6  C    3.873590   2.515271   2.991193   1.539879   2.395929
     7  N    4.495877   3.316651   3.814507   2.501958   3.149589
     8  C    4.519676   3.405234   3.482011   3.189737   4.095041
     9  C    5.958069   4.738441   5.128323   3.771359   4.237144
    10  C    6.654317   5.288304   5.453407   4.289443   4.811026
    11  C    7.236199   5.931655   6.260164   4.748387   4.991802
    12  C    8.164749   6.817674   6.973404   5.707214   5.986889
    13  C    8.549966   7.122389   6.983327   6.212217   6.719482
    14  C    8.078753   6.610438   6.283633   5.882077   6.599417
    15  C    7.138269   5.691421   5.480751   4.956124   5.710975
    16  F    7.026638   5.613499   5.190630   5.155983   6.081154
    17  H    1.097139   2.111458   2.976431   2.958723   3.064946
    18  H    1.097330   2.116268   3.373951   2.666334   2.622658
    19  H    1.097443   2.119753   2.575380   3.373873   3.856479
    20  H    2.515189   2.121845   1.097487   3.395059   4.342442
    21  H    3.105045   2.116591   1.095979   3.010493   4.171318
    22  H    3.301825   2.118869   1.096909   2.718481   3.817463
    23  H    4.581138   3.312181   3.870988   2.094270   2.501054
    24  H    4.163692   2.692398   2.586222   2.198260   3.252489
    25  H    3.861798   3.031806   3.256679   3.123110   3.964759
    26  H    5.515381   4.479465   4.516412   4.224373   5.031809
    27  H    4.658506   3.408740   3.034491   3.401218   4.490689
    28  H    6.599168   5.416837   5.671732   4.623124   5.161489
    29  H    6.283265   5.201039   5.834425   4.068736   4.220340
    30  H    7.190970   6.017662   6.587992   4.709780   4.689897
    31  H    8.773779   7.494615   7.750207   6.316801   6.427876
    32  H    9.402127   7.981433   7.765901   7.111956   7.604722
    33  H    8.635026   7.161200   6.624938   6.598507   7.418968
                    6          7          8          9         10
     6  C    0.000000
     7  N    1.490975   0.000000
     8  C    2.414266   1.482191   0.000000
     9  C    2.479979   1.498083   2.471317   0.000000
    10  C    2.801263   2.583344   3.465315   1.533608   0.000000
    11  C    3.449342   3.542865   4.688464   2.548255   1.408314
    12  C    4.431743   4.772743   5.796354   3.844889   2.442619
    13  C    4.840130   5.218397   5.946360   4.357913   2.824408
    14  C    4.412687   4.630571   5.048229   3.858021   2.446174
    15  C    3.423409   3.347093   3.722551   2.565644   1.411096
    16  F    3.701481   3.378094   3.181920   2.890077   2.395538
    17  H    4.407020   5.264266   5.438983   6.664979   7.202476
    18  H    4.071893   4.443280   4.598705   5.873245   6.751958
    19  H    4.564563   5.039953   4.741879   6.534033   7.278252
    20  H    4.058524   4.875925   4.452530   6.217266   6.540626
    21  H    3.103123   3.530242   2.800705   4.806713   5.254755
    22  H    2.840768   3.935077   3.804296   5.047198   5.057886
    23  H    1.096957   2.134677   3.348121   2.558380   2.493417
    24  H    1.096238   2.157360   2.537687   2.967293   2.920330
    25  H    2.888270   2.121919   1.097117   3.357718   4.467460
    26  H    3.347491   2.131418   1.097088   2.544234   3.643855
    27  H    2.515849   2.150649   1.097074   2.985870   3.530260
    28  H    3.366197   2.147023   2.518606   1.096849   2.155197
    29  H    3.020119   2.105220   3.292840   1.096875   2.127536
    30  H    3.640916   3.664518   4.997624   2.747015   2.167555
    31  H    5.189826   5.610916   6.742781   4.709080   3.424386
    32  H    5.800918   6.275202   6.970265   5.444073   3.910575
    33  H    5.163920   5.398108   5.577033   4.729929   3.430103
                   11         12         13         14         15
    11  C    0.000000
    12  C    1.404163   0.000000
    13  C    2.432334   1.402662   0.000000
    14  C    2.805972   2.427936   1.402784   0.000000
    15  C    2.427372   2.803447   2.431450   1.405031   0.000000
    16  F    3.666175   4.153577   3.656096   2.375181   1.350320
    17  H    7.628909   8.443327   8.847433   8.497826   7.688543
    18  H    7.287006   8.336068   8.866018   8.447147   7.412927
    19  H    8.002319   8.929850   9.199120   8.592157   7.622972
    20  H    7.321682   7.981593   7.946735   7.247234   6.512895
    21  H    6.263446   7.046374   6.971445   6.093940   5.168006
    22  H    5.760749   6.290396   6.201749   5.567000   4.960205
    23  H    2.693123   3.621148   4.243585   4.128773   3.343248
    24  H    3.711985   4.443410   4.531638   3.919794   3.064687
    25  H    5.600167   6.748334   6.962224   6.100055   4.797950
    26  H    4.948932   6.076568   6.185000   5.207544   3.830613
    27  H    4.799326   5.702833   5.616074   4.588418   3.399418
    28  H    3.302338   4.493976   4.825290   4.128364   2.782127
    29  H    2.579726   3.974744   4.783286   4.559684   3.410712
    30  H    1.086539   2.155763   3.411698   3.892444   3.416536
    31  H    2.161688   1.086073   2.160537   3.412091   3.889518
    32  H    3.416392   2.161625   1.086171   2.162304   3.416417
    33  H    3.892023   3.410853   2.158740   1.086060   2.165863
                   16         17         18         19         20
    16  F    0.000000
    17  H    7.697928   0.000000
    18  H    7.345784   1.789921   0.000000
    19  H    7.326952   1.790790   1.782708   0.000000
    20  H    6.168954   2.801504   3.552215   2.273881   0.000000
    21  H    4.635452   3.827411   3.815104   2.982622   1.783551
    22  H    4.817908   3.556649   4.182331   3.563142   1.778079
    23  H    4.003399   4.936373   4.716818   5.401785   4.891220
    24  H    3.188747   4.651599   4.606222   4.696124   3.652302
    25  H    4.243016   4.880504   3.857768   3.951728   4.079323
    26  H    3.114609   6.475586   5.502784   5.667877   5.444119
    27  H    2.683844   5.492545   4.982594   4.795916   3.989042
    28  H    2.726331   7.404545   6.496557   7.043093   6.734524
    29  H    3.920281   6.946552   6.032718   6.959105   6.907387
    30  H    4.556001   7.556362   7.098330   8.038387   7.639509
    31  H    5.239629   8.957754   8.907738   9.610132   8.728821
    32  H    4.534026   9.624807   9.773331  10.050444   8.672086
    33  H    2.619539   9.052342   9.095048   9.051198   7.510384
                   21         22         23         24         25
    21  H    0.000000
    22  H    1.793524   0.000000
    23  H    4.123722   3.524268   0.000000
    24  H    2.637529   2.161196   1.763665   0.000000
    25  H    2.561840   3.877980   3.906830   3.123513   0.000000
    26  H    3.726507   4.828690   4.143991   3.468262   1.748873
    27  H    2.259058   3.182368   3.466569   2.147047   1.802985
    28  H    5.154618   5.671116   3.609049   3.691984   3.429446
    29  H    5.617017   5.796066   2.845736   3.747697   3.990534
    30  H    6.662448   6.191429   2.779156   4.177535   5.785288
    31  H    7.922906   7.043094   4.252970   5.289983   7.647468
    32  H    7.804172   6.902162   5.174241   5.421032   7.979980
    33  H    6.372859   5.867530   5.009308   4.499219   6.614174
                   26         27         28         29         30
    26  H    0.000000
    27  H    1.774272   0.000000
    28  H    2.110188   3.063609   0.000000
    29  H    3.333631   3.968025   1.745575   0.000000
    30  H    5.276410   5.304828   3.584760   2.340304   0.000000
    31  H    7.054121   6.698479   5.406804   4.650138   2.478385
    32  H    7.218890   6.566771   5.891196   5.846676   4.306803
    33  H    5.691295   4.955016   4.863671   5.522501   4.978482
                   31         32         33
    31  H    0.000000
    32  H    2.488560   0.000000
    33  H    4.307611   2.486637   0.000000
 Stoichiometry    C12H17FN2O
 Framework group  C1[X(C12H17FN2O)]
 Deg. of freedom    93
 Full point group                 C1      NOp   1
 Largest Abelian subgroup         C1      NOp   1
 Largest concise Abelian subgroup C1      NOp   1
                         Standard orientation:                         
 ---------------------------------------------------------------------
 Center     Atomic      Atomic             Coordinates (Angstroms)
 Number     Number       Type             X           Y           Z
 ---------------------------------------------------------------------
      1          6           0        4.641808   -0.361066   -0.406279
      2          7           0        3.207011   -0.094348   -0.617711
      3          6           0        2.909393    0.962037   -1.605240
      4          6           0        2.232141   -0.923404   -0.051922
      5          8           0        2.512526   -1.990934    0.466506
      6          6           0        0.792334   -0.382748    0.024744
      7          7           0        0.545469    0.316746    1.318101
      8          6           0        0.962135    1.732126    1.176764
      9          6           0       -0.879192    0.192068    1.764250
     10          6           0       -1.918591   -0.129728    0.683486
     11          6           0       -2.446499   -1.431263    0.580210
     12          6           0       -3.406151   -1.737079   -0.398166
     13          6           0       -3.854918   -0.742291   -1.279339
     14          6           0       -3.346898    0.561358   -1.178261
     15          6           0       -2.386981    0.866931   -0.198824
     16          9           0       -1.921247    2.131158   -0.108340
     17          1           0        4.983159   -1.117982   -1.123407
     18          1           0        4.806435   -0.728246    0.614608
     19          1           0        5.221922    0.560068   -0.545420
     20          1           0        3.800131    1.177739   -2.209009
     21          1           0        2.602304    1.878582   -1.088704
     22          1           0        2.109750    0.630681   -2.279023
     23          1           0        0.168931   -1.282681   -0.044580
     24          1           0        0.545414    0.246720   -0.838122
     25          1           0        2.030133    1.830099    1.407953
     26          1           0        0.441072    2.362154    1.908310
     27          1           0        0.747444    2.128122    0.176431
     28          1           0       -1.196350    1.091757    2.305589
     29          1           0       -0.923577   -0.621541    2.498555
     30          1           0       -2.105477   -2.212496    1.253966
     31          1           0       -3.801366   -2.745933   -0.472822
     32          1           0       -4.597339   -0.980384   -2.035575
     33          1           0       -3.700414    1.331975   -1.857013
 ---------------------------------------------------------------------
 Rotational constants (GHZ):      0.9340877      0.2845424      0.2662067
 Standard basis: 6-31G(d,p) (6D, 7F)
 There are   325 symmetry adapted basis functions of A   symmetry.
 Integral buffers will be    131072 words long.
 Raffenetti 2 integral format.
 Two-electron integral symmetry is turned on.
   325 basis functions,   567 primitive gaussians,   325 cartesian basis functions
    60 alpha electrons       60 beta electrons
       nuclear repulsion energy      1122.5936201841 Hartrees.
 NAtoms=   33 NActive=   33 NUniq=   33 SFac= 1.00D+00 NAtFMM=   60 NAOKFM=F Big=F
 One-electron integrals computed using PRISM.
 NBasis=   325 RedAO= T  NBF=   325
 NBsUse=   325 1.00D-06 NBFU=   325
 Harris functional with IExCor=  402 diagonalized for initial guess.
 ExpMin= 1.61D-01 ExpMax= 7.00D+03 ExpMxC= 1.05D+03 IAcc=1 IRadAn=         1 AccDes= 0.00D+00
 HarFok:  IExCor=  402 AccDes= 0.00D+00 IRadAn=         1 IDoV= 1
 ScaDFX=  1.000000  1.000000  1.000000  1.000000
 FoFCou: FMM=F IPFlag=           0 FMFlag=      100000 FMFlg1=           0
         NFxFlg=           0 DoJE=T BraDBF=F KetDBF=T FulRan=T
         Omega=  0.000000  0.000000  1.000000  0.000000  0.000000 ICntrl=     500 IOpCl=  0
         NMat0=    1 NMatS0=    1 NMatT0=    0 NMatD0=    1 NMtDS0=    0 NMtDT0=    0
         I1Cent=           4 NGrid=           0.
 Petite list used in FoFCou.
 Initial guess orbital symmetries:
       Occupied  (A) (A) (A) (A) (A) (A) (A) (A) (A) (A) (A) (A)
                 (A) (A) (A) (A) (A) (A) (A) (A) (A) (A) (A) (A)
                 (A) (A) (A) (A) (A) (A) (A) (A) (A) (A) (A) (A)
                 (A) (A) (A) (A) (A) (A) (A) (A) (A) (A) (A) (A)
                 (A) (A) (A) (A) (A) (A) (A) (A) (A) (A) (A) (A)
       Virtual   (A) (A) (A) (A) (A) (A) (A) (A) (A) (A) (A) (A)
                 (A) (A) (A) (A) (A) (A) (A) (A) (A) (A) (A) (A)
                 (A) (A) (A) (A) (A) (A) (A) (A) (A) (A) (A) (A)
                 (A) (A) (A) (A) (A) (A) (A) (A) (A) (A) (A) (A)
                 (A) (A) (A) (A) (A) (A) (A) (A) (A) (A) (A) (A)
                 (A) (A) (A) (A) (A) (A) (A) (A) (A) (A) (A) (A)
                 (A) (A) (A) (A) (A) (A) (A) (A) (A) (A) (A) (A)
                 (A) (A) (A) (A) (A) (A) (A) (A) (A) (A) (A) (A)
                 (A) (A) (A) (A) (A) (A) (A) (A) (A) (A) (A) (A)
                 (A) (A) (A) (A) (A) (A) (A) (A) (A) (A) (A) (A)
                 (A) (A) (A) (A) (A) (A) (A) (A) (A) (A) (A) (A)
                 (A) (A) (A) (A) (A) (A) (A) (A) (A) (A) (A) (A)
                 (A) (A) (A) (A) (A) (A) (A) (A) (A) (A) (A) (A)
                 (A) (A) (A) (A) (A) (A) (A) (A) (A) (A) (A) (A)
                 (A) (A) (A) (A) (A) (A) (A) (A) (A) (A) (A) (A)
                 (A) (A) (A) (A) (A) (A) (A) (A) (A) (A) (A) (A)
                 (A) (A) (A) (A) (A) (A) (A) (A) (A) (A) (A) (A)
                 (A) (A) (A) (A) (A) (A) (A) (A) (A) (A) (A) (A)
                 (A) (A) (A) (A) (A) (A) (A) (A) (A) (A) (A) (A)
                 (A) (A) (A) (A) (A) (A) (A) (A) (A) (A) (A) (A)
                 (A) (A) (A) (A) (A) (A) (A) (A) (A) (A) (A) (A)
                 (A) (A) (A) (A) (A) (A) (A) (A) (A) (A) (A) (A)
                 (A)
 The electronic state of the initial guess is 1-A.
 Requested convergence on RMS density matrix=1.00D-08 within 128 cycles.
 Requested convergence on MAX density matrix=1.00D-06.
 Requested convergence on             energy=1.00D-06.
 No special actions if energy rises.
 Keep R1 ints in memory in canonical form, NReq=1421145610.
 Integral accuracy reduced to 1.0D-05 until final iterations.
 Initial convergence to 1.0D-05 achieved.  Increase integral accuracy.
 SCF Done:  E(RB3LYP) =  -752.068855227     A.U. after   15 cycles
             Convg  =    0.7661D-08             -V/T =  2.0097

 **********************************************************************

            Population analysis using the SCF density.

 **********************************************************************

 Orbital symmetries:
       Occupied  (A) (A) (A) (A) (A) (A) (A) (A) (A) (A) (A) (A)
                 (A) (A) (A) (A) (A) (A) (A) (A) (A) (A) (A) (A)
                 (A) (A) (A) (A) (A) (A) (A) (A) (A) (A) (A) (A)
                 (A) (A) (A) (A) (A) (A) (A) (A) (A) (A) (A) (A)
                 (A) (A) (A) (A) (A) (A) (A) (A) (A) (A) (A) (A)
       Virtual   (A) (A) (A) (A) (A) (A) (A) (A) (A) (A) (A) (A)
                 (A) (A) (A) (A) (A) (A) (A) (A) (A) (A) (A) (A)
                 (A) (A) (A) (A) (A) (A) (A) (A) (A) (A) (A) (A)
                 (A) (A) (A) (A) (A) (A) (A) (A) (A) (A) (A) (A)
                 (A) (A) (A) (A) (A) (A) (A) (A) (A) (A) (A) (A)
                 (A) (A) (A) (A) (A) (A) (A) (A) (A) (A) (A) (A)
                 (A) (A) (A) (A) (A) (A) (A) (A) (A) (A) (A) (A)
                 (A) (A) (A) (A) (A) (A) (A) (A) (A) (A) (A) (A)
                 (A) (A) (A) (A) (A) (A) (A) (A) (A) (A) (A) (A)
                 (A) (A) (A) (A) (A) (A) (A) (A) (A) (A) (A) (A)
                 (A) (A) (A) (A) (A) (A) (A) (A) (A) (A) (A) (A)
                 (A) (A) (A) (A) (A) (A) (A) (A) (A) (A) (A) (A)
                 (A) (A) (A) (A) (A) (A) (A) (A) (A) (A) (A) (A)
                 (A) (A) (A) (A) (A) (A) (A) (A) (A) (A) (A) (A)
                 (A) (A) (A) (A) (A) (A) (A) (A) (A) (A) (A) (A)
                 (A) (A) (A) (A) (A) (A) (A) (A) (A) (A) (A) (A)
                 (A) (A) (A) (A) (A) (A) (A) (A) (A) (A) (A) (A)
                 (A) (A) (A) (A) (A) (A) (A) (A) (A) (A) (A) (A)
                 (A) (A) (A) (A) (A) (A) (A) (A) (A) (A) (A) (A)
                 (A) (A) (A) (A) (A) (A) (A) (A) (A) (A) (A) (A)
                 (A) (A) (A) (A) (A) (A) (A) (A) (A) (A) (A) (A)
                 (A) (A) (A) (A) (A) (A) (A) (A) (A) (A) (A) (A)
                 (A)
 The electronic state is 1-A.
 Alpha  occ. eigenvalues --  -24.71535 -19.09996 -14.35410 -14.33281 -10.27824
 Alpha  occ. eigenvalues --  -10.27258 -10.22326 -10.21741 -10.21271 -10.20844
 Alpha  occ. eigenvalues --  -10.20637 -10.20357 -10.20270 -10.20172 -10.20002
 Alpha  occ. eigenvalues --  -10.19748  -1.22489  -1.01842  -0.91514  -0.90820
 Alpha  occ. eigenvalues --   -0.85798  -0.77143  -0.74856  -0.72936  -0.71180
 Alpha  occ. eigenvalues --   -0.69369  -0.67329  -0.62357  -0.61862  -0.58642
 Alpha  occ. eigenvalues --   -0.54068  -0.52978  -0.49979  -0.49448  -0.48703
 Alpha  occ. eigenvalues --   -0.47118  -0.46805  -0.46445  -0.45082  -0.44708
 Alpha  occ. eigenvalues --   -0.44257  -0.42663  -0.41227  -0.40672  -0.40539
 Alpha  occ. eigenvalues --   -0.40393  -0.39656  -0.38143  -0.37381  -0.36761
 Alpha  occ. eigenvalues --   -0.36302  -0.35814  -0.34583  -0.34427  -0.33539
 Alpha  occ. eigenvalues --   -0.25862  -0.24879  -0.24053  -0.22500  -0.21044
 Alpha virt. eigenvalues --   -0.01610  -0.00754   0.02490   0.08070   0.08498
 Alpha virt. eigenvalues --    0.10800   0.11408   0.12325   0.12983   0.13364
 Alpha virt. eigenvalues --    0.13902   0.14392   0.15366   0.15599   0.15704
 Alpha virt. eigenvalues --    0.16456   0.16832   0.17431   0.17812   0.18559
 Alpha virt. eigenvalues --    0.19893   0.20037   0.20956   0.21274   0.22980
 Alpha virt. eigenvalues --    0.24572   0.27011   0.27383   0.29214   0.30511
 Alpha virt. eigenvalues --    0.31462   0.33785   0.34242   0.34747   0.39808
 Alpha virt. eigenvalues --    0.45095   0.47936   0.49044   0.49401   0.50700
 Alpha virt. eigenvalues --    0.51467   0.52170   0.52843   0.54890   0.55006
 Alpha virt. eigenvalues --    0.56404   0.56673   0.57531   0.58941   0.59432
 Alpha virt. eigenvalues --    0.59536   0.60161   0.60412   0.61582   0.61998
 Alpha virt. eigenvalues --    0.64118   0.64556   0.65162   0.66621   0.68865
 Alpha virt. eigenvalues --    0.71187   0.72401   0.73524   0.74632   0.76165
 Alpha virt. eigenvalues --    0.77234   0.78034   0.79342   0.80595   0.81286
 Alpha virt. eigenvalues --    0.81481   0.82585   0.83213   0.83668   0.84405
 Alpha virt. eigenvalues --    0.85272   0.85547   0.86711   0.87747   0.88586
 Alpha virt. eigenvalues --    0.88822   0.88972   0.89989   0.91642   0.91915
 Alpha virt. eigenvalues --    0.92486   0.94686   0.95198   0.96001   0.97477
 Alpha virt. eigenvalues --    0.99171   1.00149   1.02171   1.02891   1.05864
 Alpha virt. eigenvalues --    1.07555   1.08438   1.11395   1.13705   1.15223
 Alpha virt. eigenvalues --    1.17411   1.18268   1.18878   1.22132   1.24075
 Alpha virt. eigenvalues --    1.24293   1.26201   1.26420   1.29394   1.31126
 Alpha virt. eigenvalues --    1.34326   1.35624   1.36713   1.38590   1.39904
 Alpha virt. eigenvalues --    1.40144   1.41419   1.42786   1.44546   1.46453
 Alpha virt. eigenvalues --    1.47870   1.49889   1.52303   1.55515   1.60422
 Alpha virt. eigenvalues --    1.61946   1.64107   1.68323   1.69027   1.72725
 Alpha virt. eigenvalues --    1.74220   1.75014   1.76712   1.77948   1.80243
 Alpha virt. eigenvalues --    1.81342   1.83207   1.83643   1.84537   1.85368
 Alpha virt. eigenvalues --    1.85951   1.87169   1.87742   1.89360   1.90208
 Alpha virt. eigenvalues --    1.90871   1.91486   1.93286   1.94157   1.94639
 Alpha virt. eigenvalues --    1.95323   1.96545   1.98854   1.99531   2.00594
 Alpha virt. eigenvalues --    2.01517   2.02309   2.02616   2.03412   2.04218
 Alpha virt. eigenvalues --    2.05822   2.06526   2.07472   2.08585   2.09387
 Alpha virt. eigenvalues --    2.11894   2.13513   2.14167   2.14941   2.17932
 Alpha virt. eigenvalues --    2.18044   2.21841   2.24506   2.25269   2.27595
 Alpha virt. eigenvalues --    2.28218   2.29298   2.30654   2.31326   2.32532
 Alpha virt. eigenvalues --    2.34185   2.35602   2.37116   2.37609   2.39146
 Alpha virt. eigenvalues --    2.39528   2.40176   2.41780   2.42968   2.43827
 Alpha virt. eigenvalues --    2.46534   2.48766   2.49733   2.51595   2.52439
 Alpha virt. eigenvalues --    2.53111   2.55185   2.56895   2.57959   2.58346
 Alpha virt. eigenvalues --    2.60164   2.62714   2.63061   2.63293   2.65792
 Alpha virt. eigenvalues --    2.67030   2.67746   2.69033   2.69339   2.72257
 Alpha virt. eigenvalues --    2.73777   2.76086   2.76484   2.77359   2.80265
 Alpha virt. eigenvalues --    2.80907   2.83512   2.84127   2.86265   2.87845
 Alpha virt. eigenvalues --    2.90332   2.91553   2.92513   2.95474   3.00522
 Alpha virt. eigenvalues --    3.04063   3.06428   3.08632   3.09892   3.11689
 Alpha virt. eigenvalues --    3.17667   3.18028   3.21150   3.23073   3.23913
 Alpha virt. eigenvalues --    3.28583   3.33577   3.35015   3.35776   3.41542
 Alpha virt. eigenvalues --    3.42085   3.43135   3.43896   3.44455   3.45095
 Alpha virt. eigenvalues --    3.46215   3.49492   3.53652   3.82682   4.01979
 Alpha virt. eigenvalues --    4.05090   4.11712   4.14673   4.19539   4.25002
 Alpha virt. eigenvalues --    4.34768   4.41998   4.45586   4.49732   4.51507
 Alpha virt. eigenvalues --    4.53076   4.59878   4.70062   4.80094   5.54288
          Condensed to atoms (all electrons):
              1          2          3          4          5          6
     1  C    4.786921   0.277601  -0.048482  -0.021349   0.006760   0.006386
     2  N    0.277601   7.081414   0.276325   0.252963  -0.099490  -0.114242
     3  C   -0.048482   0.276325   4.819762  -0.018889   0.002725  -0.000629
     4  C   -0.021349   0.252963  -0.018889   4.417191   0.593622   0.326126
     5  O    0.006760  -0.099490   0.002725   0.593622   8.059036  -0.081447
     6  C    0.006386  -0.114242  -0.000629   0.326126  -0.081447   5.102443
     7  N   -0.000122  -0.001798   0.000166  -0.043987  -0.000367   0.303711
     8  C   -0.000041   0.002564  -0.003700  -0.001728  -0.000041  -0.053141
     9  C    0.000004  -0.000109   0.000008   0.004035  -0.000214  -0.043436
    10  C    0.000000  -0.000016  -0.000001  -0.000060  -0.000014  -0.014376
    11  C    0.000000  -0.000002   0.000000  -0.000062  -0.000001  -0.004509
    12  C    0.000000   0.000000   0.000000   0.000001   0.000000  -0.000244
    13  C    0.000000   0.000000   0.000000  -0.000001   0.000000   0.000007
    14  C    0.000000   0.000000   0.000000  -0.000001   0.000000   0.000008
    15  C    0.000000   0.000000  -0.000005   0.000108  -0.000001  -0.000997
    16  F    0.000000   0.000000   0.000000   0.000006   0.000000   0.000110
    17  H    0.388744  -0.046493   0.000639  -0.002790   0.001325  -0.000169
    18  H    0.389519  -0.036059   0.004415  -0.003077   0.007717   0.000252
    19  H    0.381263  -0.037143  -0.005235   0.004319   0.000500  -0.000093
    20  H   -0.006150  -0.029367   0.384788   0.001247  -0.000072   0.000040
    21  H    0.002309  -0.051551   0.382193  -0.001070  -0.000072  -0.000519
    22  H    0.003643  -0.038813   0.387790  -0.003898   0.000183  -0.000502
    23  H   -0.000157   0.004870  -0.000201  -0.026193   0.003778   0.360265
    24  H   -0.000259   0.001789  -0.000473  -0.037305   0.003468   0.326808
    25  H    0.000150   0.002546  -0.000913   0.001831   0.000030   0.001823
    26  H   -0.000001   0.000072   0.000128  -0.000051  -0.000002   0.004990
    27  H   -0.000017  -0.000222  -0.002241  -0.001802  -0.000006  -0.015756
    28  H    0.000000   0.000001  -0.000001  -0.000132   0.000000   0.003697
    29  H    0.000000   0.000006   0.000000   0.000202   0.000047   0.001792
    30  H    0.000000   0.000000   0.000000   0.000010   0.000002  -0.000049
    31  H    0.000000   0.000000   0.000000   0.000000   0.000000  -0.000004
    32  H    0.000000   0.000000   0.000000   0.000000   0.000000   0.000000
    33  H    0.000000   0.000000   0.000000   0.000000   0.000000  -0.000001
              7          8          9         10         11         12
     1  C   -0.000122  -0.000041   0.000004   0.000000   0.000000   0.000000
     2  N   -0.001798   0.002564  -0.000109  -0.000016  -0.000002   0.000000
     3  C    0.000166  -0.003700   0.000008  -0.000001   0.000000   0.000000
     4  C   -0.043987  -0.001728   0.004035  -0.000060  -0.000062   0.000001
     5  O   -0.000367  -0.000041  -0.000214  -0.000014  -0.000001   0.000000
     6  C    0.303711  -0.053141  -0.043436  -0.014376  -0.004509  -0.000244
     7  N    6.858817   0.304057   0.301967  -0.048442  -0.001028  -0.000060
     8  C    0.304057   4.855616  -0.047521  -0.003625  -0.000131   0.000006
     9  C    0.301967  -0.047521   4.921720   0.302718  -0.048963   0.005859
    10  C   -0.048442  -0.003625   0.302718   5.099458   0.511589  -0.028342
    11  C   -0.001028  -0.000131  -0.048963   0.511589   4.894531   0.515025
    12  C   -0.000060   0.000006   0.005859  -0.028342   0.515025   4.834385
    13  C    0.000015  -0.000003  -0.000099  -0.029532  -0.034809   0.540272
    14  C   -0.000076   0.000052   0.006829  -0.069355  -0.042621  -0.029935
    15  C    0.000252   0.002424  -0.045150   0.420849  -0.015263  -0.042341
    16  F   -0.000832   0.001589   0.003604  -0.058307   0.002531  -0.000072
    17  H   -0.000004   0.000005   0.000000   0.000000   0.000000   0.000000
    18  H   -0.000007  -0.000001   0.000000   0.000000   0.000000   0.000000
    19  H    0.000006  -0.000008   0.000000   0.000000   0.000000   0.000000
    20  H   -0.000014   0.000062   0.000000   0.000000   0.000000   0.000000
    21  H    0.000092   0.001645  -0.000002   0.000006   0.000000   0.000000
    22  H   -0.000111   0.000112   0.000010  -0.000001   0.000000   0.000000
    23  H   -0.027414   0.005812  -0.010791   0.002932   0.002978   0.000413
    24  H   -0.040460  -0.016941  -0.005825   0.006942   0.000555  -0.000048
    25  H   -0.045902   0.387074   0.004549  -0.000247   0.000002   0.000000
    26  H   -0.028811   0.378459  -0.009856   0.000085  -0.000012   0.000000
    27  H   -0.043951   0.361694  -0.000602   0.002252   0.000035   0.000000
    28  H   -0.030589  -0.012487   0.369773  -0.024037   0.002967  -0.000239
    29  H   -0.050619   0.005540   0.381740  -0.050161  -0.008155   0.000296
    30  H    0.000178  -0.000007  -0.008769  -0.040195   0.370736  -0.039851
    31  H    0.000001   0.000000  -0.000143   0.004216  -0.036594   0.366941
    32  H    0.000000   0.000000   0.000005   0.000365   0.004713  -0.039051
    33  H    0.000003   0.000000  -0.000138   0.006016   0.000368   0.004759
             13         14         15         16         17         18
     1  C    0.000000   0.000000   0.000000   0.000000   0.388744   0.389519
     2  N    0.000000   0.000000   0.000000   0.000000  -0.046493  -0.036059
     3  C    0.000000   0.000000  -0.000005   0.000000   0.000639   0.004415
     4  C   -0.000001  -0.000001   0.000108   0.000006  -0.002790  -0.003077
     5  O    0.000000   0.000000  -0.000001   0.000000   0.001325   0.007717
     6  C    0.000007   0.000008  -0.000997   0.000110  -0.000169   0.000252
     7  N    0.000015  -0.000076   0.000252  -0.000832  -0.000004  -0.000007
     8  C   -0.000003   0.000052   0.002424   0.001589   0.000005  -0.000001
     9  C   -0.000099   0.006829  -0.045150   0.003604   0.000000   0.000000
    10  C   -0.029532  -0.069355   0.420849  -0.058307   0.000000   0.000000
    11  C   -0.034809  -0.042621  -0.015263   0.002531   0.000000   0.000000
    12  C    0.540272  -0.029935  -0.042341  -0.000072   0.000000   0.000000
    13  C    4.832360   0.491721  -0.015396   0.002750   0.000000   0.000000
    14  C    0.491721   5.028510   0.475064  -0.045531   0.000000   0.000000
    15  C   -0.015396   0.475064   4.624117   0.302925   0.000000   0.000000
    16  F    0.002750  -0.045531   0.302925   9.076944   0.000000   0.000000
    17  H    0.000000   0.000000   0.000000   0.000000   0.609780  -0.033984
    18  H    0.000000   0.000000   0.000000   0.000000  -0.033984   0.555375
    19  H    0.000000   0.000000   0.000000   0.000000  -0.041309  -0.025759
    20  H    0.000000   0.000000   0.000000   0.000000   0.002547   0.000019
    21  H    0.000000   0.000000  -0.000002  -0.000008  -0.000560   0.000030
    22  H    0.000000   0.000000  -0.000010   0.000000   0.000305  -0.000245
    23  H   -0.000015  -0.000209  -0.000010   0.000004   0.000019  -0.000020
    24  H    0.000005   0.000038   0.000540   0.000152  -0.000005  -0.000016
    25  H    0.000000   0.000000  -0.000023   0.000087   0.000008  -0.000010
    26  H    0.000000   0.000002   0.000133  -0.000033   0.000000  -0.000001
    27  H   -0.000002  -0.000004  -0.000644   0.003953  -0.000001  -0.000001
    28  H    0.000008   0.000026  -0.008360   0.002295   0.000000   0.000000
    29  H   -0.000007  -0.000189   0.006044   0.000127   0.000000   0.000000
    30  H    0.004685   0.000138   0.004245  -0.000017   0.000000   0.000000
    31  H   -0.040805   0.004533   0.000843   0.000001   0.000000   0.000000
    32  H    0.371050  -0.037644   0.003667  -0.000020   0.000000   0.000000
    33  H   -0.039412   0.356473  -0.033587  -0.000463   0.000000   0.000000
             19         20         21         22         23         24
     1  C    0.381263  -0.006150   0.002309   0.003643  -0.000157  -0.000259
     2  N   -0.037143  -0.029367  -0.051551  -0.038813   0.004870   0.001789
     3  C   -0.005235   0.384788   0.382193   0.387790  -0.000201  -0.000473
     4  C    0.004319   0.001247  -0.001070  -0.003898  -0.026193  -0.037305
     5  O    0.000500  -0.000072  -0.000072   0.000183   0.003778   0.003468
     6  C   -0.000093   0.000040  -0.000519  -0.000502   0.360265   0.326808
     7  N    0.000006  -0.000014   0.000092  -0.000111  -0.027414  -0.040460
     8  C   -0.000008   0.000062   0.001645   0.000112   0.005812  -0.016941
     9  C    0.000000   0.000000  -0.000002   0.000010  -0.010791  -0.005825
    10  C    0.000000   0.000000   0.000006  -0.000001   0.002932   0.006942
    11  C    0.000000   0.000000   0.000000   0.000000   0.002978   0.000555
    12  C    0.000000   0.000000   0.000000   0.000000   0.000413  -0.000048
    13  C    0.000000   0.000000   0.000000   0.000000  -0.000015   0.000005
    14  C    0.000000   0.000000   0.000000   0.000000  -0.000209   0.000038
    15  C    0.000000   0.000000  -0.000002  -0.000010  -0.000010   0.000540
    16  F    0.000000   0.000000  -0.000008   0.000000   0.000004   0.000152
    17  H   -0.041309   0.002547  -0.000560   0.000305   0.000019  -0.000005
    18  H   -0.025759   0.000019   0.000030  -0.000245  -0.000020  -0.000016
    19  H    0.616580  -0.000546   0.001971  -0.000015   0.000000  -0.000013
    20  H   -0.000546   0.589512  -0.035285  -0.024890   0.000002   0.000337
    21  H    0.001971  -0.035285   0.616422  -0.040835  -0.000061  -0.000047
    22  H   -0.000015  -0.024890  -0.040835   0.590054   0.000286   0.001574
    23  H    0.000000   0.000002  -0.000061   0.000286   0.585589  -0.033420
    24  H   -0.000013   0.000337  -0.000047   0.001574  -0.033420   0.693434
    25  H   -0.000039   0.000031  -0.000102   0.000061  -0.000137  -0.001525
    26  H    0.000000  -0.000001  -0.000256   0.000001  -0.000238   0.000515
    27  H    0.000002   0.000100   0.003914   0.000228   0.000390   0.018996
    28  H    0.000000   0.000000   0.000003   0.000000   0.000385   0.000139
    29  H    0.000000   0.000000   0.000000   0.000000   0.001234  -0.000583
    30  H    0.000000   0.000000   0.000000   0.000000   0.000594  -0.000033
    31  H    0.000000   0.000000   0.000000   0.000000   0.000001  -0.000001
    32  H    0.000000   0.000000   0.000000   0.000000  -0.000001   0.000000
    33  H    0.000000   0.000000   0.000000   0.000000   0.000000  -0.000008
             25         26         27         28         29         30
     1  C    0.000150  -0.000001  -0.000017   0.000000   0.000000   0.000000
     2  N    0.002546   0.000072  -0.000222   0.000001   0.000006   0.000000
     3  C   -0.000913   0.000128  -0.002241  -0.000001   0.000000   0.000000
     4  C    0.001831  -0.000051  -0.001802  -0.000132   0.000202   0.000010
     5  O    0.000030  -0.000002  -0.000006   0.000000   0.000047   0.000002
     6  C    0.001823   0.004990  -0.015756   0.003697   0.001792  -0.000049
     7  N   -0.045902  -0.028811  -0.043951  -0.030589  -0.050619   0.000178
     8  C    0.387074   0.378459   0.361694  -0.012487   0.005540  -0.000007
     9  C    0.004549  -0.009856  -0.000602   0.369773   0.381740  -0.008769
    10  C   -0.000247   0.000085   0.002252  -0.024037  -0.050161  -0.040195
    11  C    0.000002  -0.000012   0.000035   0.002967  -0.008155   0.370736
    12  C    0.000000   0.000000   0.000000  -0.000239   0.000296  -0.039851
    13  C    0.000000   0.000000  -0.000002   0.000008  -0.000007   0.004685
    14  C    0.000000   0.000002  -0.000004   0.000026  -0.000189   0.000138
    15  C   -0.000023   0.000133  -0.000644  -0.008360   0.006044   0.004245
    16  F    0.000087  -0.000033   0.003953   0.002295   0.000127  -0.000017
    17  H    0.000008   0.000000  -0.000001   0.000000   0.000000   0.000000
    18  H   -0.000010  -0.000001  -0.000001   0.000000   0.000000   0.000000
    19  H   -0.000039   0.000000   0.000002   0.000000   0.000000   0.000000
    20  H    0.000031  -0.000001   0.000100   0.000000   0.000000   0.000000
    21  H   -0.000102  -0.000256   0.003914   0.000003   0.000000   0.000000
    22  H    0.000061   0.000001   0.000228   0.000000   0.000000   0.000000
    23  H   -0.000137  -0.000238   0.000390   0.000385   0.001234   0.000594
    24  H   -0.001525   0.000515   0.018996   0.000139  -0.000583  -0.000033
    25  H    0.615433  -0.032702  -0.046637   0.000096  -0.000125   0.000000
    26  H   -0.032702   0.608044  -0.030232   0.006020   0.000373   0.000000
    27  H   -0.046637  -0.030232   0.655930   0.001125  -0.000463  -0.000002
    28  H    0.000096   0.006020   0.001125   0.615573  -0.039733   0.000077
    29  H   -0.000125   0.000373  -0.000463  -0.039733   0.634534   0.006646
    30  H    0.000000   0.000000  -0.000002   0.000077   0.006646   0.603954
    31  H    0.000000   0.000000   0.000000   0.000003  -0.000004  -0.005355
    32  H    0.000000   0.000000   0.000000   0.000000   0.000000  -0.000187
    33  H    0.000000   0.000000  -0.000002   0.000000   0.000003   0.000013
             31         32         33
     1  C    0.000000   0.000000   0.000000
     2  N    0.000000   0.000000   0.000000
     3  C    0.000000   0.000000   0.000000
     4  C    0.000000   0.000000   0.000000
     5  O    0.000000   0.000000   0.000000
     6  C   -0.000004   0.000000  -0.000001
     7  N    0.000001   0.000000   0.000003
     8  C    0.000000   0.000000   0.000000
     9  C   -0.000143   0.000005  -0.000138
    10  C    0.004216   0.000365   0.006016
    11  C   -0.036594   0.004713   0.000368
    12  C    0.366941  -0.039051   0.004759
    13  C   -0.040805   0.371050  -0.039412
    14  C    0.004533  -0.037644   0.356473
    15  C    0.000843   0.003667  -0.033587
    16  F    0.000001  -0.000020  -0.000463
    17  H    0.000000   0.000000   0.000000
    18  H    0.000000   0.000000   0.000000
    19  H    0.000000   0.000000   0.000000
    20  H    0.000000   0.000000   0.000000
    21  H    0.000000   0.000000   0.000000
    22  H    0.000000   0.000000   0.000000
    23  H    0.000001  -0.000001   0.000000
    24  H   -0.000001   0.000000  -0.000008
    25  H    0.000000   0.000000   0.000000
    26  H    0.000000   0.000000   0.000000
    27  H    0.000000   0.000000  -0.000002
    28  H    0.000003   0.000000   0.000000
    29  H   -0.000004   0.000000   0.000003
    30  H   -0.005355  -0.000187   0.000013
    31  H    0.620252  -0.005566  -0.000169
    32  H   -0.005566   0.613270  -0.006489
    33  H   -0.000169  -0.006489   0.612980
 Mulliken atomic charges:
              1
     1  C   -0.166720
     2  N   -0.444845
     3  C   -0.178167
     4  C    0.560733
     5  O   -0.497466
     6  C   -0.108340
     7  N   -0.404671
     8  C   -0.167333
     9  C   -0.081201
    10  C    0.009286
    11  C   -0.113880
    12  C   -0.087773
    13  C   -0.082792
    14  C   -0.137831
    15  C    0.320578
    16  F   -0.291794
    17  H    0.121943
    18  H    0.141853
    19  H    0.105517
    20  H    0.117640
    21  H    0.121786
    22  H    0.125077
    23  H    0.129315
    24  H    0.081671
    25  H    0.114642
    26  H    0.103376
    27  H    0.093967
    28  H    0.113392
    29  H    0.111455
    30  H    0.103188
    31  H    0.091851
    32  H    0.095889
    33  H    0.099655
 Sum of Mulliken atomic charges =   0.00000
 Mulliken charges with hydrogens summed into heavy atoms:
              1
     1  C    0.202593
     2  N   -0.444845
     3  C    0.186335
     4  C    0.560733
     5  O   -0.497466
     6  C    0.102647
     7  N   -0.404671
     8  C    0.144652
     9  C    0.143645
    10  C    0.009286
    11  C   -0.010691
    12  C    0.004077
    13  C    0.013097
    14  C   -0.038176
    15  C    0.320578
    16  F   -0.291794
 Sum of Mulliken charges with hydrogens summed into heavy atoms =   0.00000
 Electronic spatial extent (au):  <R**2>=           4383.4061
 Charge=              0.0000 electrons
 Dipole moment (field-independent basis, Debye):
    X=             -0.9638    Y=              2.3297    Z=             -2.2087  Tot=              3.3518
 Quadrupole moment (field-independent basis, Debye-Ang):
   XX=            -85.2739   YY=            -98.5355   ZZ=            -91.4214
   XY=             12.3579   XZ=             -3.3626   YZ=              1.4271
 Traceless Quadrupole moment (field-independent basis, Debye-Ang):
   XX=              6.4697   YY=             -6.7919   ZZ=              0.3222
   XY=             12.3579   XZ=             -3.3626   YZ=              1.4271
 Octapole moment (field-independent basis, Debye-Ang**2):
  XXX=             38.5151  YYY=             16.3494  ZZZ=             -3.1442  XYY=            -20.0550
  XXY=             16.5306  XXZ=            -36.4730  XZZ=             -3.9977  YZZ=              9.3846
  YYZ=             -0.9355  XYZ=              3.5548
 Hexadecapole moment (field-independent basis, Debye-Ang**3):
 XXXX=          -3910.4117 YYYY=           -905.4473 ZZZZ=           -678.0264 XXXY=             40.1864
 XXXZ=             49.5965 YYYX=             31.7307 YYYZ=              5.2383 ZZZX=             -4.3823
 ZZZY=             -5.9105 XXYY=           -851.7081 XXZZ=           -759.0505 YYZZ=           -250.1431
 XXYZ=              5.5188 YYXZ=             -9.0731 ZZXY=            -12.9488
 N-N= 1.122593620184D+03 E-N=-3.997532155757D+03  KE= 7.448650278430D+02
 1\1\GINC-C02\SP\RB3LYP\6-31G(d,p)\C12H17F1N2O1\TUU61186\08-Jun-2026\0\
 \# b3lyp/6-31g(d,p)\\Generated by mdgx\\0,1\C,0,10.9667116,19.2702255,
 15.2196771\N,0,12.0298519,18.2941713,15.5222237\C,0,13.0526852,18.7642
 853,16.4774947\C,0,11.9413265,16.9733304,15.0690496\O,0,10.9174312,16.
 5235666,14.5828856\C,0,13.2296336,16.1298345,15.0719373\N,0,13.9458345
 ,16.2319605,13.7682371\C,0,14.8393905,17.4137322,13.8113944\C,0,14.690
 6896,14.9760005,13.433561\C,0,15.0412324,14.0456859,14.6012885\C,0,14.
 3040903,12.8630331,14.8045151\C,0,14.6208124,11.9972656,15.8636698\C,0
 ,15.6839708,12.3004647,16.7269345\C,0,16.4345765,13.4685913,16.5272479
 \C,0,16.1175074,14.3343355,15.4670276\F,0,16.8613126,15.4461796,15.282
 8502\H,0,10.1511019,19.160004,15.9451747\H,0,10.578273,19.0970565,14.2
 081136\H,0,11.365162,20.2914289,15.272222\H,0,12.696436,19.6590367,17.
 0037885\H,0,13.9757106,19.013613,15.9417431\H,0,13.2555987,17.9854319,
 17.2227623\H,0,12.8728815,15.1045017,15.2292143\H,0,13.8789577,16.3779
 521,15.9196127\H,0,14.2873884,18.3087754,13.4985723\H,0,15.6591563,17.
 3035786,13.0906644\H,0,15.2807862,17.5619265,14.8047625\H,0,15.6062073
 ,15.2051457,12.874636\H,0,14.0647267,14.3965739,12.7439459\H,0,13.4758
 272,12.6173524,14.1455852\H,0,14.0411866,11.0913144,16.0148008\H,0,15.
 9277896,11.6297324,17.5457379\H,0,17.2616532,13.6984137,17.1925695\\Ve
 rsion=EM64L-G09RevC.01\State=1-A\HF=-752.0688552\RMSD=7.661e-09\Dipole
 =0.9589859,0.3118462,0.8497571\Quadrupole=-10.3392107,10.2863302,0.052
 8805,-2.1593404,-2.2069564,0.4994136\PG=C01 [X(C12H17F1N2O1)]\\@


 The cat could very well be man's best friend
 but would never stoop to admitting it.
                               -- Doug Larson
 Job cpu time:  0 days  0 hours  3 minutes 28.7 seconds.
 File lengths (MBytes):  RWF=     47 Int=      0 D2E=      0 Chk=      5 Scr=      1
 Normal termination of Gaussian 09 at Mon Jun  8 05:50:20 2026.
