%nprocshared=8
%mem=14GB
# b3lyp/6-31g(d,p)

Generated by mdgx

0   1
    C       12.2673619   15.0076432   17.0109473
    C       13.7829197   15.0192016   16.8213485
    O       14.4979920   15.4249842   17.7200079
    N       14.3321893   14.4964493   15.6269416
    C       13.5518949   14.1314941   14.4759005
    C       13.4563579   12.7805210   14.0641001
    C       12.5890563   12.4054068   13.0265137
    C       11.7774171   13.3692042   12.4057479
    C       11.8280012   14.7042634   12.8386251
    C       12.6951450   15.0798965   13.8807103
    F       14.1948403   11.8228895   14.6694073
    C       15.8128896   14.3855099   15.5208927
    C       16.4811630   15.6473844   14.9374752
    O       15.8089937   16.5393112   14.4451629
    N       17.8884681   15.7243324   14.9392585
    C       18.7224665   14.6966332   15.5894716
    C       18.5547649   16.9131220   14.3761159
    H       11.9960470   15.1535327   18.0621245
    H       11.8318986   14.0945608   16.5907723
    H       11.8355505   15.8093626   16.4049096
    H       12.5442891   11.3652150   12.7186545
    H       11.1030946   13.0828343   11.6015587
    H       11.1926686   15.4498581   12.3666577
    H       12.7346511   16.1183490   14.2014403
    H       16.0781129   13.5428378   14.8728389
    H       16.2385744   14.1911012   16.5124863
    H       18.4942553   13.7115854   15.1638807
    H       18.5171212   14.6856360   16.6670856
    H       19.7876776   14.9073871   15.4338596
    H       18.2484891   17.0443395   13.3307288
    H       19.6454575   16.8021820   14.4138694
    H       18.2661908   17.8009715   14.9525060


