%nprocshared=8
%mem=14GB
# b3lyp/6-31g(d,p)

Generated by mdgx

0   1
    C       14.8218921   14.2048177   12.5648794
    C       16.3181441   13.9921466   12.7765405
    O       17.0968930   14.2865283   11.8893789
    N       16.7921364   13.4632383   13.9965453
    C       15.8911568   13.0163669   15.0775242
    C       15.6604097   14.0725020   16.1770726
    C       14.6552803   13.5905122   17.2120226
    C       15.0958675   12.9925702   18.4099352
    C       14.1627120   12.5378522   19.3602834
    C       12.7870427   12.6778125   19.1171652
    Cl      11.6235294   12.1080267   20.3033828
    C       12.3411460   13.2714708   17.9255985
    C       13.2727408   13.7268737   16.9741641
    C       18.2609564   13.3606210   14.2234902
    C       18.9428103   14.6957518   14.6128064
    O       18.2798240   15.6583582   14.9650760
    N       20.3535114   14.7531924   14.6207893
    C       21.1798093   13.6446154   14.1047700
    C       21.0317494   16.0047815   15.0103271
    H       14.6201696   14.7192429   11.6189657
    H       14.3983820   14.7429074   13.4184005
    H       14.3158126   13.2346197   12.5935762
    H       16.3311600   12.1234239   15.5389143
    H       14.9281191   12.7059822   14.6587341
    H       15.3077075   15.0038066   15.7179339
    H       16.6162858   14.3063873   16.6603791
    H       16.1591567   12.8811805   18.6060663
    H       14.5008125   12.0783041   20.2846917
    H       11.2753506   13.3774730   17.7440707
    H       12.9198619   14.1865620   16.0544489
    H       18.7295612   12.9857189   13.3055370
    H       18.4669732   12.6362649   15.0204227
    H       20.9367086   12.7196313   14.6423624
    H       22.2464875   13.8601600   14.2435695
    H       20.9828941   13.5077643   13.0340710
    H       20.6838531   16.3178082   16.0028446
    H       20.7960472   16.7897843   14.2808161
    H       22.1190452   15.8635402   15.0458437


